     Program PWSCF v.6.3 starts on 21Nov2020 at 15: 2:39

     R & G space division:  proc/nbgrp/npool/nimage =      12
     Waiting for input...
     Reading input from standard input
     Message from routine read_cards :
     DEPRECATED: no units specified in CELL_PARAMETERS card

     Current dimensions of program PWSCF are:
     Max number of different atomic species (ntypx) = 10
     Max number of k-points (npk) =  40000
     Max angular momentum in pseudopotentials (lmaxx) =  3

     IMPORTANT: XC functional enforced from input :
     Exchange-correlation      = PBE ( 1  4  3  4 0 0)
     Any further DFT definition will be discarded
     Please, verify this is what you really want

               file N.pbe-n-kjpaw_psl.1.0.0.UPF: wavefunction(s)  2S renormalized

     Found symmetry operation: I + ( -0.5000  0.0000  0.0000)
     This is a supercell, fractional translations are disabled

     bravais-lattice index     =            0
     lattice parameter (alat)  =       9.4603  a.u.
     unit-cell volume          =     905.0715 (a.u.)^3
     number of atoms/cell      =           16
     number of atomic types    =            2
     number of electrons       =        64.00
     number of Kohn-Sham states=          120
     kinetic-energy cutoff     =     100.0000  Ry
     charge density cutoff     =     400.0000  Ry
     convergence threshold     =      1.0E-07
     mixing beta               =       0.1000
     number of iterations used =            8  plain     mixing
     Exchange-correlation      = PBE ( 1  4  3  4 0 0)
     nstep                     =           50

     celldm(1)=   9.460347  celldm(2)=   0.000000  celldm(3)=   0.000000
     celldm(4)=   0.000000  celldm(5)=   0.000000  celldm(6)=   0.000000

     crystal axes: (cart. coord. in units of alat)
               a(1) = (   1.000000   0.000000   0.000000 )
               a(2) = (  -0.500000   0.866025   0.000000 )
               a(3) = (   0.000000   0.000000   1.234329 )

     reciprocal axes: (cart. coord. in units 2 pi/alat)
               b(1) = (  1.000000  0.577350  0.000000 )
               b(2) = (  0.000000  1.154701  0.000000 )
               b(3) = (  0.000000  0.000000  0.810156 )

     PseudoPot. # 1 for B  read from file:
     /home/hanghu/Simulaiton/QE/pseudo/B.pbe-n-kjpaw_psl.1.0.0.UPF
     MD5 check sum: 8c825a5969375aca5c2c6ad5945b3059
     Pseudo is Projector augmented-wave + core cor, Zval =  3.0
     Generated using "atomic" code by A. Dal Corso v.6.3
     Shape of augmentation charge: PSQ
     Using radial grid of 1059 points,  4 beta functions with:
                l(1) =   0
                l(2) =   0
                l(3) =   1
                l(4) =   1
     Q(r) pseudized with 0 coefficients

     PseudoPot. # 2 for N  read from file:
     /home/hanghu/Simulaiton/QE/pseudo/N.pbe-n-kjpaw_psl.1.0.0.UPF
     MD5 check sum: 14c48229446f9f2d411169a3abcbc3fa
     Pseudo is Projector augmented-wave + core cor, Zval =  5.0
     Generated using "atomic" code by A. Dal Corso v.6.3
     Shape of augmentation charge: PSQ
     Using radial grid of 1085 points,  4 beta functions with:
                l(1) =   0
                l(2) =   0
                l(3) =   1
                l(4) =   1
     Q(r) pseudized with 0 coefficients

     atomic species   valence    mass     pseudopotential
        B              3.00    10.81000     B ( 1.00)
        N              5.00    14.00700     N ( 1.00)

      4 Sym. Ops., with inversion, found

   Cartesian axes

     site n.     atom                  positions (alat units)
         1           B   tau(   1) = (   0.0000050   0.2886722   0.3085824  )
         2           B   tau(   2) = (   0.2499950   0.1443405   0.9257471  )
         3           N   tau(   3) = (   0.0000050   0.2886722   0.9257471  )
         4           N   tau(   4) = (   0.2499950   0.1443405   0.3085824  )
         5           B   tau(   5) = (   0.5000050   0.2886722   0.3085824  )
         6           B   tau(   6) = (   0.7499950   0.1443405   0.9257471  )
         7           N   tau(   7) = (   0.5000050   0.2886722   0.9257471  )
         8           N   tau(   8) = (   0.7499950   0.1443405   0.3085824  )
         9           B   tau(   9) = (  -0.2499950   0.7216849   0.3085824  )
        10           B   tau(  10) = (  -0.0000050   0.5773532   0.9257471  )
        11           N   tau(  11) = (  -0.2499950   0.7216849   0.9257471  )
        12           N   tau(  12) = (  -0.0000050   0.5773532   0.3085824  )
        13           B   tau(  13) = (   0.2500050   0.7216849   0.3085824  )
        14           B   tau(  14) = (   0.4999950   0.5773532   0.9257471  )
        15           N   tau(  15) = (   0.2500050   0.7216849   0.9257471  )
        16           N   tau(  16) = (   0.4999950   0.5773532   0.3085824  )

     number of k points=    34
                       cart. coord. in units 2pi/alat
        k(    1) = (   0.0000000   0.0000000   0.0000000), wk =   0.0185185
        k(    2) = (   0.0000000   0.0000000   0.2700522), wk =   0.0370370
        k(    3) = (   0.0000000   0.1924501   0.0000000), wk =   0.0740741
        k(    4) = (   0.0000000   0.1924501   0.2700522), wk =   0.0740741
        k(    5) = (   0.0000000   0.3849002   0.0000000), wk =   0.0740741
        k(    6) = (   0.0000000   0.3849002   0.2700522), wk =   0.0740741
        k(    7) = (   0.0000000  -0.5773503   0.0000000), wk =   0.0370370
        k(    8) = (   0.0000000  -0.5773503   0.2700522), wk =   0.0740741
        k(    9) = (   0.1666667   0.2886751   0.0000000), wk =   0.0370370
        k(   10) = (   0.1666667   0.2886751   0.2700522), wk =   0.0740741
        k(   11) = (   0.1666667   0.4811252   0.0000000), wk =   0.0740741
        k(   12) = (   0.1666667   0.4811252   0.2700522), wk =   0.0740741
        k(   13) = (   0.3333333   0.5773503   0.0000000), wk =   0.0370370
        k(   14) = (   0.3333333   0.5773503   0.2700522), wk =   0.0740741
        k(   15) = (  -0.1666667   0.0962250   0.0000000), wk =   0.0370370
        k(   16) = (  -0.1666667   0.0962250   0.2700522), wk =   0.0370370
        k(   17) = (   0.1666667   0.0962250   0.2700522), wk =   0.0740741
        k(   18) = (   0.1666667  -0.0962250   0.2700522), wk =   0.0370370
        k(   19) = (  -0.3333333   0.1924501   0.0000000), wk =   0.0370370
        k(   20) = (  -0.3333333   0.1924501   0.2700522), wk =   0.0370370
        k(   21) = (   0.3333333   0.1924501   0.2700522), wk =   0.0740741
        k(   22) = (   0.3333333  -0.1924501   0.2700522), wk =   0.0370370
        k(   23) = (   0.5000000  -0.2886751   0.0000000), wk =   0.0185185
        k(   24) = (   0.5000000  -0.2886751   0.2700522), wk =   0.0370370
        k(   25) = (  -0.1666667   0.2886751   0.0000000), wk =   0.0740741
        k(   26) = (  -0.1666667   0.2886751   0.2700522), wk =   0.0740741
        k(   27) = (   0.3333333  -0.0000000   0.2700522), wk =   0.0740741
        k(   28) = (  -0.3333333   0.3849002   0.0000000), wk =   0.0740741
        k(   29) = (   0.5000000   0.0962250   0.0000000), wk =   0.0740741
        k(   30) = (  -0.3333333   0.3849002   0.2700522), wk =   0.0740741
        k(   31) = (   0.5000000   0.0962250   0.2700522), wk =   0.0740741
        k(   32) = (  -0.5000000  -0.0962250   0.2700522), wk =   0.0740741
        k(   33) = (   0.3333333  -0.3849002   0.2700522), wk =   0.0740741
        k(   34) = (  -0.3333333  -0.3849002  -0.2700522), wk =   0.0740741

     Check: negative/imaginary core charge=   -0.000003    0.000000

     Initial potential from superposition of free atoms

     starting charge   63.99768, renormalised to   64.00000
     Starting wfcs are   64 randomized atomic wfcs +   56 random wfcs
     Checking if some PAW data can be deallocated...

     Self-consistent Calculation

     iteration #  1     ecut=   100.00 Ry     beta= 0.10
     Davidson diagonalization with overlap
     ethr =  1.00E-02,  avg # of iterations =  6.1

     total energy              =    -319.45858722 Ry
     Harris-Foulkes estimate   =    -319.87402417 Ry
     estimated scf accuracy    <       2.98845543 Ry

[...]

     negative rho (up, down):  1.085E-04 0.000E+00

[...]

     End of self-consistent calculation

          k = 0.0000 0.0000 0.0000 ( 15205 PWs)   bands (ev):

   -12.3882 -11.8898  -9.1093  -9.1092  -9.1092  -8.9832  -8.9831  -8.9831
    -3.4076  -3.4075  -3.4075  -3.2986  -3.2984  -3.2984  -1.0546   1.3501
     1.3501   1.3506   1.4748   1.4748   1.4754   1.9113   3.8145   3.8145
     3.8150   4.1921   4.1934   4.2669   4.2683   5.2656   5.2656   5.2657
     9.7317   9.7320   9.7320  11.3279  11.5612  11.5622  11.5622  15.2072
    15.2072  15.2074  15.4662  15.4662  15.4663  16.6660  17.1091  17.1109
    17.3274  17.3293  18.0866  18.5832  18.6411  18.6414  18.6414  19.7840
    19.7840  19.7841  20.8372  21.0690  21.0690  21.0693  23.6093  25.9624
    25.9624  25.9628  26.9267  26.9267  26.9267  27.2484  27.2493  27.2493
    27.4056  27.4056  27.4057  27.5380  27.5390  27.5390  27.9284  27.9284
    27.9297  29.6564  29.6564  29.6570  30.6224  30.6533  32.0748  32.9054
    32.9054  32.9055  33.5324  33.5329  33.5415  33.5415  33.5419  34.2653
    34.2653  34.2655  34.5018  34.5027  34.5027  34.9808  34.9812  34.9812
    36.4593  36.4597  36.9152  37.3640  37.3645  37.3645  37.9748  38.8357
    38.8363  40.2329  40.2329  40.2337  41.0197  41.0199  42.5780  42.5781

[...]

          k =-0.1667 0.0962 0.0000 ( 15258 PWs)   bands (ev):

[...]

     highest occupied, lowest unoccupied level (ev):     5.5949    9.7317

!    total energy              =    -318.88895090 Ry
     Harris-Foulkes estimate   =    -318.88895089 Ry
     estimated scf accuracy    <          4.3E-09 Ry

     total all-electron energy =     -1275.194115 Ry

     The total energy is the sum of the following terms:

     one-electron contribution =     -41.32946405 Ry
     hartree contribution      =      57.55732711 Ry
     xc contribution           =     -70.72249688 Ry
     ewald contribution        =    -158.94470358 Ry
     one-center paw contrib.   =    -105.44961350 Ry

     convergence has been achieved in  10 iterations

[...]

     Forces acting on atoms (cartesian axes, Ry/au):

     atom    1 type  1   force =    -0.00008191    0.00004751    0.00004108
     atom    2 type  1   force =     0.00008210   -0.00004718   -0.00004108
     atom    3 type  2   force =    -0.00008047    0.00004929   -0.00000105
     atom    4 type  2   force =     0.00008293   -0.00004504    0.00000105
     atom    5 type  1   force =    -0.00008155    0.00004708    0.00004111
     atom    6 type  1   force =     0.00008143   -0.00004701   -0.00004114
     atom    7 type  2   force =    -0.00008360    0.00004826   -0.00000103
     atom    8 type  2   force =     0.00008108   -0.00004681    0.00000085
     atom    9 type  1   force =    -0.00008143    0.00004701    0.00004114
     atom   10 type  1   force =     0.00008155   -0.00004708   -0.00004111
     atom   11 type  2   force =    -0.00008108    0.00004681   -0.00000085
     atom   12 type  2   force =     0.00008360   -0.00004826    0.00000103
[...]
     density =      2.44394 g/cm^3

CELL_PARAMETERS (bohr)
   9.476333336  -0.000102472   0.000000060
  -4.738255411   8.206694168  -0.000000060
   0.000000075  -0.000000043  11.705457213

ATOMIC_POSITIONS (crystal)
B        0.166664241   0.333335799   0.250003518
B        0.333335799   0.166664241   0.749996482
N        0.166664502   0.333336017   0.749999910
N        0.333336017   0.166664502   0.250000090
B        0.666664253   0.333335747   0.250003521
B        0.833335738   0.166664262   0.749996477
N        0.666664109   0.333335891   0.749999912
N        0.833335714   0.166664286   0.250000073
B        0.166664262   0.833335738   0.250003523
B        0.333335747   0.666664253   0.749996479
N        0.166664286   0.833335714   0.749999927
N        0.333335891   0.666664109   0.250000088
B        0.666664201   0.833335759   0.250003518
B        0.833335759   0.666664201   0.749996482
N        0.666663983   0.833335498   0.749999910
N        0.833335498   0.666663983   0.250000090

     Writing output data file pwscf.save/
     NEW-OLD atomic charge density approx. for the potential

[...]

     negative rho (up, down):  1.154E-04 0.000E+00
     extrapolated charge   64.36900, renormalised to   64.00000

[...]

     enthalpy old            =    -318.5813232810 Ry
     enthalpy new            =    -318.5815196927 Ry

     CASE: enthalpy_new < enthalpy_old

[...]

     Total force =     0.000146     Total SCF correction =     0.000033
     SCF correction compared to forces is large: reduce conv_thr to get better values

[...]

     Threshold (ethr) on eigenvalues was too large:
     Diagonalizing with lowered threshold

     Davidson diagonalization with overlap
     ethr =  3.30E-09,  avg # of iterations =  1.0

[...]

     small trust_radius: resetting bfgs history

[...]

     number of scf cycles    =   8
     number of bfgs steps    =   7

     enthalpy old            =    -318.5824053643 Ry
     enthalpy new            =    -318.5824053789 Ry

     CASE: enthalpy_new < enthalpy_old

     Message from routine bfgs:
     history already reset at previous step: stopping
     small trust_radius: resetting bfgs history

     new trust radius        =       0.0000843065 bohr
     new conv_thr            =       0.0000000010 Ry

     new unit-cell volume =    928.67862 a.u.^3 (   137.61597 Ang^3 )
     density =      2.39563 g/cm^3

[...]

ATOMIC_POSITIONS (crystal)
B        0.166667896   0.333332101   0.250036890
B        0.333332101   0.166667896   0.749963110
N        0.166667851   0.333332138   0.749972531
N        0.333332138   0.166667851   0.250027469
B        0.666667898   0.333332102   0.250036892
B        0.833332103   0.166667897   0.749963097
N        0.666667857   0.333332143   0.749972535
N        0.833332147   0.166667853   0.250027429
B        0.166667897   0.833332103   0.250036903
B        0.333332102   0.666667898   0.749963108
N        0.166667853   0.833332147   0.749972571
N        0.333332143   0.666667857   0.250027465
B        0.666667899   0.833332104   0.250036890
B        0.833332104   0.666667899   0.749963110
N        0.666667862   0.833332149   0.749972531
N        0.833332149   0.666667862   0.250027469

     Writing output data file pwscf.save/
     NEW-OLD atomic charge density approx. for the potential

[...]

     negative rho (up, down):  1.830E-04 0.000E+00
     extrapolated charge   64.00035, renormalised to   64.00000

[...]

     Threshold (ethr) on eigenvalues was too large:
     Diagonalizing with lowered threshold

     Davidson diagonalization with overlap
     ethr =  3.33E-11,  avg # of iterations =  2.0

[...]

     negative rho (up, down):  1.832E-04 0.000E+00

[...]

     Total force =     0.000183     Total SCF correction =     0.000008

[...]

     negative rho (up, down):  1.832E-04 0.000E+00
          total   stress  (Ry/bohr**3)                   (kbar)     P=   49.99
   0.00034003  -0.00000042  -0.00000000         50.02     -0.06     -0.00
  -0.00000042   0.00033955   0.00000000         -0.06     49.95      0.00
  -0.00000000   0.00000000   0.00033990         -0.00      0.00     50.00

     bfgs converged in   9 scf cycles and   8 bfgs steps
     (criteria: energy <  1.0E-04 Ry, force <  1.0E-03Ry/Bohr, cell <  1.0E-03kbar)

     End of BFGS Geometry Optimization

     Final enthalpy =    -318.5824053898 Ry
Begin final coordinates
     new unit-cell volume =    928.67862 a.u.^3 (   137.61597 Ang^3 )
     density =      2.39563 g/cm^3

CELL_PARAMETERS (bohr)
   9.466727009   0.000046844   0.000000220
  -4.733322937   8.198449503  -0.000000220
   0.000000274  -0.000000158  11.965548973

ATOMIC_POSITIONS (crystal)
B        0.166667896   0.333332101   0.250036890
B        0.333332101   0.166667896   0.749963110
N        0.166667851   0.333332138   0.749972531
N        0.333332138   0.166667851   0.250027469
B        0.666667898   0.333332102   0.250036892
B        0.833332103   0.166667897   0.749963097
N        0.666667857   0.333332143   0.749972535
N        0.833332147   0.166667853   0.250027429
B        0.166667897   0.833332103   0.250036903
B        0.333332102   0.666667898   0.749963108
N        0.166667853   0.833332147   0.749972571
N        0.333332143   0.666667857   0.250027465
B        0.666667899   0.833332104   0.250036890
B        0.833332104   0.666667899   0.749963110
N        0.666667862   0.833332149   0.749972531
N        0.833332149   0.666667862   0.250027469
End final coordinates

     Writing output data file pwscf.save/

     A final scf calculation at the relaxed structure.
     The G-vectors are recalculated for the final unit cell
     Results may differ from those at the preceding step.

     bravais-lattice index     =            0
     lattice parameter (alat)  =       9.4603  a.u.
     unit-cell volume          =     928.6786 (a.u.)^3
     number of atoms/cell      =           16
     number of atomic types    =            2
     number of electrons       =        64.00
     number of Kohn-Sham states=          120
     kinetic-energy cutoff     =     100.0000  Ry
     charge density cutoff     =     400.0000  Ry
     convergence threshold     =      1.0E-09
     mixing beta               =       0.1000
     number of iterations used =            8  plain     mixing
     Exchange-correlation      = PBE ( 1  4  3  4 0 0)

     celldm(1)=   9.460347  celldm(2)=   0.000000  celldm(3)=   0.000000
     celldm(4)=   0.000000  celldm(5)=   0.000000  celldm(6)=   0.000000

     crystal axes: (cart. coord. in units of alat)
               a(1) = (   1.000674   0.000005   0.000000 )
               a(2) = (  -0.500333   0.866612  -0.000000 )
               a(3) = (   0.000000  -0.000000   1.264811 )

     reciprocal axes: (cart. coord. in units 2 pi/alat)
               b(1) = (  0.999323  0.576953 -0.000000 )
               b(2) = ( -0.000006  1.153916  0.000000 )
               b(3) = ( -0.000000  0.000000  0.790632 )

     PseudoPot. # 1 for B  read from file:
     /home/hanghu/Simulaiton/QE/pseudo/B.pbe-n-kjpaw_psl.1.0.0.UPF
     MD5 check sum: 8c825a5969375aca5c2c6ad5945b3059
     Pseudo is Projector augmented-wave + core cor, Zval =  3.0
     Generated using "atomic" code by A. Dal Corso v.6.3
     Shape of augmentation charge: PSQ
     Using radial grid of 1059 points,  4 beta functions with:
                l(1) =   0
                l(2) =   0
                l(3) =   1
                l(4) =   1
     Q(r) pseudized with 0 coefficients

     PseudoPot. # 2 for N  read from file:
     /home/hanghu/Simulaiton/QE/pseudo/N.pbe-n-kjpaw_psl.1.0.0.UPF
     MD5 check sum: 14c48229446f9f2d411169a3abcbc3fa
     Pseudo is Projector augmented-wave + core cor, Zval =  5.0
     Generated using "atomic" code by A. Dal Corso v.6.3
     Shape of augmentation charge: PSQ
     Using radial grid of 1085 points,  4 beta functions with:
                l(1) =   0
                l(2) =   0
                l(3) =   1
                l(4) =   1
     Q(r) pseudized with 0 coefficients

     atomic species   valence    mass     pseudopotential
        B              3.00    10.81000     B ( 1.00)
        N              5.00    14.00700     N ( 1.00)

      4 Sym. Ops., with inversion, found

   Cartesian axes

     site n.     atom                  positions (alat units)
         1           B   tau(   1) = (   0.0000033   0.2888704   0.3162494  )
         2           B   tau(   2) = (   0.2501675   0.1444380   0.9485614  )
         3           N   tau(   3) = (   0.0000032   0.2888704   0.9485733  )
         4           N   tau(   4) = (   0.2501675   0.1444380   0.3162374  )
         5           B   tau(   5) = (   0.5003405   0.2888729   0.3162494  )
         6           B   tau(   6) = (   0.7505047   0.1444405   0.9485614  )
         7           N   tau(   7) = (   0.5003404   0.2888729   0.9485734  )
         8           N   tau(   8) = (   0.7505047   0.1444405   0.3162374  )
         9           B   tau(   9) = (  -0.2501632   0.7221764   0.3162494  )
        10           B   tau(  10) = (   0.0000010   0.5777440   0.9485614  )
        11           N   tau(  11) = (  -0.2501632   0.7221764   0.9485734  )
        12           N   tau(  12) = (   0.0000011   0.5777440   0.3162374  )
        13           B   tau(  13) = (   0.2501740   0.7221788   0.3162494  )
        14           B   tau(  14) = (   0.5003382   0.5777465   0.9485614  )
        15           N   tau(  15) = (   0.2501740   0.7221789   0.9485733  )
        16           N   tau(  16) = (   0.5003383   0.5777464   0.3162374  )

     number of k points=    34
                       cart. coord. in units 2pi/alat
        k(    1) = (   0.0000000   0.0000000   0.0000000), wk =   0.0185185
        k(    2) = (  -0.0000000   0.0000000   0.2635440), wk =   0.0370370
        k(    3) = (  -0.0000010   0.1923193   0.0000000), wk =   0.0740741
        k(    4) = (  -0.0000010   0.1923193   0.2635440), wk =   0.0740741
        k(    5) = (  -0.0000019   0.3846386   0.0000000), wk =   0.0740741
        k(    6) = (  -0.0000019   0.3846386   0.2635440), wk =   0.0740741
        k(    7) = (   0.0000029  -0.5769579  -0.0000000), wk =   0.0370370
        k(    8) = (   0.0000028  -0.5769579   0.2635440), wk =   0.0740741
        k(    9) = (   0.1665529   0.2884781   0.0000000), wk =   0.0370370
        k(   10) = (   0.1665529   0.2884781   0.2635440), wk =   0.0740741
        k(   11) = (   0.1665520   0.4807974   0.0000000), wk =   0.0740741
        k(   12) = (   0.1665520   0.4807974   0.2635440), wk =   0.0740741
        k(   13) = (   0.3331058   0.5769562   0.0000000), wk =   0.0370370
        k(   14) = (   0.3331058   0.5769562   0.2635440), wk =   0.0740741
        k(   15) = (  -0.1665548   0.0961605   0.0000000), wk =   0.0370370
        k(   16) = (  -0.1665548   0.0961605   0.2635440), wk =   0.0370370
        k(   17) = (   0.1665539   0.0961588   0.2635440), wk =   0.0740741
        k(   18) = (   0.1665548  -0.0961605   0.2635440), wk =   0.0370370
        k(   19) = (  -0.3331096   0.1923209   0.0000000), wk =   0.0370370
        k(   20) = (  -0.3331096   0.1923209   0.2635440), wk =   0.0370370
        k(   21) = (   0.3331077   0.1923176   0.2635440), wk =   0.0740741
        k(   22) = (   0.3331096  -0.1923209   0.2635440), wk =   0.0370370
        k(   23) = (   0.4996645  -0.2884814  -0.0000000), wk =   0.0185185
        k(   24) = (   0.4996644  -0.2884814   0.2635440), wk =   0.0370370
        k(   25) = (  -0.1665558   0.2884798   0.0000000), wk =   0.0740741
        k(   26) = (  -0.1665558   0.2884798   0.2635440), wk =   0.0740741
        k(   27) = (   0.3331087  -0.0000016   0.2635440), wk =   0.0740741
        k(   28) = (  -0.3331106   0.3846402   0.0000000), wk =   0.0740741
        k(   29) = (   0.4996626   0.0961572  -0.0000000), wk =   0.0740741
        k(   30) = (  -0.3331106   0.3846402   0.2635440), wk =   0.0740741
        k(   31) = (   0.4996625   0.0961572   0.2635440), wk =   0.0740741
        k(   32) = (  -0.4996626  -0.0961572   0.2635440), wk =   0.0740741
        k(   33) = (   0.3331106  -0.3846402   0.2635440), wk =   0.0740741
        k(   34) = (  -0.3331068  -0.3846369  -0.2635440), wk =   0.0740741

     Check: negative/imaginary core charge=   -0.000003    0.000000

     Initial potential from superposition of free atoms

     starting charge   63.99768, renormalised to   64.00000
     Starting wfcs are   64 randomized atomic wfcs +   56 random wfcs
     Checking if some PAW data can be deallocated...

     Self-consistent Calculation

[...]

     total energy              =    -318.89810373 Ry
     Harris-Foulkes estimate   =    -318.89810373 Ry
     estimated scf accuracy    <          7.6E-09 Ry

     iteration # 12     ecut=   100.00 Ry     beta= 0.10
     Davidson diagonalization with overlap
     ethr =  9.84E-12,  avg # of iterations =  2.0

     End of self-consistent calculation

[...]

          k = 0.3331-0.3846 0.2635 ( 15693 PWs)   bands (ev):

[...]

          k =-0.3331-0.3846-0.2635 ( 15693 PWs)   bands (ev):

   -11.6029 -11.4161 -10.8757 -10.7108 -10.2188 -10.0781  -8.9607  -8.9123
    -2.9035  -2.8373  -1.6384  -1.6009  -1.2551  -1.2101  -0.7982  -0.7435
     0.4453   0.4927   0.5467   0.9427   1.0183   1.5614   1.6235   1.6920
     1.8632   2.3533   2.3915   2.5933   2.7775   3.6151   4.6488   5.1285
     9.9871  10.3518  11.8585  12.3025  12.8391  13.2491  13.3018  14.4173
    15.0491  15.7376  15.8937  16.1897  16.5714  17.0496  17.1613  17.3690
    17.4156  17.9529  18.0173  18.2850  18.5922  18.6020  18.6926  18.9600
    19.9430  20.1600  20.4807  21.4290  21.4793  21.5935  21.7879  22.2555
    22.5252  23.0419  23.7285  23.8676  23.9093  24.2562  24.6532  24.6629
    25.2196  25.3957  25.6335  25.9707  26.0650  26.4951  26.6084  27.6802
    27.9047  28.0771  28.9462  29.3522  29.4483  30.0821  30.5483  31.0086
    31.1017  31.6102  32.4324  32.7491  32.8322  33.0826  33.1106  33.3556
    33.6433  34.4407  34.9481  35.3778  35.6149  35.8110  35.9044  36.5683
    37.1777  37.3886  37.5857  38.0492  38.5527  38.5925  38.9162  39.0866
    39.2689  39.3128  39.9652  40.3895  40.4706  40.9718  41.3454  42.1280

     highest occupied, lowest unoccupied level (ev):     5.2860    9.4652

!    total energy              =    -318.89810374 Ry
     Harris-Foulkes estimate   =    -318.89810373 Ry
     estimated scf accuracy    <          5.2E-10 Ry

     total all-electron energy =     -1275.203268 Ry

     The total energy is the sum of the following terms:

     one-electron contribution =     -48.00668171 Ry
     hartree contribution      =      60.19994532 Ry
     xc contribution           =     -70.67349710 Ry
     ewald contribution        =    -154.96885172 Ry
     one-center paw contrib.   =    -105.44901853 Ry

     convergence has been achieved in  12 iterations

     Forces acting on atoms (cartesian axes, Ry/au):

     atom    1 type  1   force =    -0.00003434    0.00002095   -0.00003900
     atom    2 type  1   force =     0.00003531   -0.00001926    0.00003900
     atom    3 type  2   force =    -0.00003454    0.00002089   -0.00002170
     atom    4 type  2   force =     0.00003537   -0.00001947    0.00002170
     atom    5 type  1   force =    -0.00003474    0.00002006   -0.00003902
     atom    6 type  1   force =     0.00003375   -0.00001949    0.00003902
     atom    7 type  2   force =    -0.00003481    0.00002009   -0.00002172
     atom    8 type  2   force =     0.00003396   -0.00001961    0.00002173
     atom    9 type  1   force =    -0.00003375    0.00001949   -0.00003902
     atom   10 type  1   force =     0.00003474   -0.00002006    0.00003902
     atom   11 type  2   force =    -0.00003396    0.00001961   -0.00002173
     atom   12 type  2   force =     0.00003481   -0.00002009    0.00002172
     atom   13 type  1   force =    -0.00003531    0.00001926   -0.00003900
     atom   14 type  1   force =     0.00003434   -0.00002095    0.00003900
     atom   15 type  2   force =    -0.00003537    0.00001947   -0.00002170
     atom   16 type  2   force =     0.00003454   -0.00002089    0.00002170

     Total force =     0.000204     Total SCF correction =     0.000029
     SCF correction compared to forces is large: reduce conv_thr to get better values

     Computing stress (Cartesian axis) and pressure

          total   stress  (Ry/bohr**3)                   (kbar)     P=   49.94
   0.00033967  -0.00000042  -0.00000000         49.97     -0.06     -0.00
  -0.00000042   0.00033919   0.00000000         -0.06     49.90      0.00
  -0.00000000   0.00000000   0.00033954         -0.00      0.00     49.95

     Writing output data file pwscf.save/

     General routines

     Parallel routines

   This run was terminated on:  15:43:25  21Nov2020

   JOB DONE.