     Program PHONON v.6.3 starts on 21Nov2020 at 18:53:57

     R & G space division:  proc/nbgrp/npool/nimage =      12

     Reading data from directory:
     /home/hanghu/scratch/BN-rho-5GPa/pwscf.save/

     IMPORTANT: XC functional enforced from input :
     Exchange-correlation      = PBE ( 1  4  3  4 0 0)
     Any further DFT definition will be discarded
     Please, verify this is what you really want

               file N.pbe-n-kjpaw_psl.1.0.0.UPF: wavefunction(s)  2S renormalized

     Check: negative/imaginary core charge=   -0.000003    0.000000

     Calculation of q =    0.0000000   0.0000000   0.0000000

     Normal modes for AA

     bravais-lattice index     =            0
     lattice parameter (alat)  =       9.4603  a.u.
     unit-cell volume          =     928.6786 (a.u.)^3
     number of atoms/cell      =           16
     number of atomic types    =            2
     kinetic-energy cut-off    =     100.0000  Ry
     charge density cut-off    =     400.0000  Ry
     convergence threshold     =      1.0E-14
     beta                      =       0.7000
     number of iterations used =            4
     Exchange-correlation      = PBE ( 1  4  3  4 0 0)

     celldm(1)=    9.46673  celldm(2)=    0.00000  celldm(3)=    1.26396
     celldm(4)=    0.00000  celldm(5)=    0.00000  celldm(6)=    0.00000

     crystal axes: (cart. coord. in units of alat)
               a(1) = (  1.0007  0.0000  0.0000 )
               a(2) = ( -0.5003  0.8666 -0.0000 )
               a(3) = (  0.0000 -0.0000  1.2648 )

     reciprocal axes: (cart. coord. in units 2 pi/alat)
               b(1) = (  0.9993  0.5770 -0.0000 )
               b(2) = ( -0.0000  1.1539  0.0000 )
               b(3) = ( -0.0000  0.0000  0.7906 )

     Atoms inside the unit cell:

     Cartesian axes

     site n.  atom      mass           positions (alat units)
        1     B   10.8100   tau(    1) = (    0.00000    0.28887    0.31625  )
        2     B   10.8100   tau(    2) = (    0.25017    0.14444    0.94856  )
        3     N   14.0070   tau(    3) = (    0.00000    0.28887    0.94857  )
        4     N   14.0070   tau(    4) = (    0.25017    0.14444    0.31624  )
        5     B   10.8100   tau(    5) = (    0.50034    0.28887    0.31625  )
        6     B   10.8100   tau(    6) = (    0.75050    0.14444    0.94856  )
        7     N   14.0070   tau(    7) = (    0.50034    0.28887    0.94857  )
        8     N   14.0070   tau(    8) = (    0.75050    0.14444    0.31624  )
        9     B   10.8100   tau(    9) = (   -0.25016    0.72218    0.31625  )
       10     B   10.8100   tau(   10) = (    0.00000    0.57774    0.94856  )
       11     N   14.0070   tau(   11) = (   -0.25016    0.72218    0.94857  )
       12     N   14.0070   tau(   12) = (    0.00000    0.57774    0.31624  )
       13     B   10.8100   tau(   13) = (    0.25017    0.72218    0.31625  )
       14     B   10.8100   tau(   14) = (    0.50034    0.57775    0.94856  )
       15     N   14.0070   tau(   15) = (    0.25017    0.72218    0.94857  )
       16     N   14.0070   tau(   16) = (    0.50034    0.57775    0.31624  )

     Computing dynamical matrix for
                    q = (   0.0000000   0.0000000   0.0000000 )

      5 Sym.Ops. (with q -> -q+G )

     G cutoff =  906.8060  (  10456 G-vectors)     FFT grid: ( 64, 64, 80)
     number of k points=    34
                       cart. coord. in units 2pi/alat
        k(    1) = (   0.0000000   0.0000000   0.0000000), wk =   0.0185185
        k(    2) = (  -0.0000000   0.0000000   0.2635440), wk =   0.0370370
        k(    3) = (  -0.0000010   0.1923193   0.0000000), wk =   0.0740741
        k(    4) = (  -0.0000010   0.1923193   0.2635440), wk =   0.0740741
        k(    5) = (  -0.0000019   0.3846386   0.0000000), wk =   0.0740741
        k(    6) = (  -0.0000019   0.3846386   0.2635440), wk =   0.0740741
        k(    7) = (   0.0000029  -0.5769579  -0.0000000), wk =   0.0370370
        k(    8) = (   0.0000028  -0.5769579   0.2635440), wk =   0.0740741
        k(    9) = (   0.1665529   0.2884781   0.0000000), wk =   0.0370370
        k(   10) = (   0.1665529   0.2884781   0.2635440), wk =   0.0740741
        k(   11) = (   0.1665520   0.4807974   0.0000000), wk =   0.0740741
        k(   12) = (   0.1665520   0.4807974   0.2635440), wk =   0.0740741
        k(   13) = (   0.3331058   0.5769562   0.0000000), wk =   0.0370370
        k(   14) = (   0.3331058   0.5769562   0.2635440), wk =   0.0740741
        k(   15) = (  -0.1665548   0.0961605   0.0000000), wk =   0.0370370
        k(   16) = (  -0.1665548   0.0961605   0.2635440), wk =   0.0370370
        k(   17) = (   0.1665539   0.0961588   0.2635440), wk =   0.0740741
        k(   18) = (   0.1665548  -0.0961605   0.2635440), wk =   0.0370370
        k(   19) = (  -0.3331096   0.1923209   0.0000000), wk =   0.0370370
        k(   20) = (  -0.3331096   0.1923209   0.2635440), wk =   0.0370370
        k(   21) = (   0.3331077   0.1923176   0.2635440), wk =   0.0740741
        k(   22) = (   0.3331096  -0.1923209   0.2635440), wk =   0.0370370
        k(   23) = (   0.4996645  -0.2884814  -0.0000000), wk =   0.0185185
        k(   24) = (   0.4996644  -0.2884814   0.2635440), wk =   0.0370370
        k(   25) = (  -0.1665558   0.2884798   0.0000000), wk =   0.0740741
        k(   26) = (  -0.1665558   0.2884798   0.2635440), wk =   0.0740741
        k(   27) = (   0.3331087  -0.0000016   0.2635440), wk =   0.0740741
        k(   28) = (  -0.3331106   0.3846402   0.0000000), wk =   0.0740741
        k(   29) = (   0.4996626   0.0961572  -0.0000000), wk =   0.0740741
        k(   30) = (  -0.3331106   0.3846402   0.2635440), wk =   0.0740741
        k(   31) = (   0.4996625   0.0961572   0.2635440), wk =   0.0740741
        k(   32) = (  -0.4996626  -0.0961572   0.2635440), wk =   0.0740741
        k(   33) = (   0.3331106  -0.3846402   0.2635440), wk =   0.0740741
        k(   34) = (  -0.3331068  -0.3846369  -0.2635440), wk =   0.0740741

     PseudoPot. # 1 for B  read from file:
     /home/hanghu/Simulaiton/QE/pseudo/B.pbe-n-kjpaw_psl.1.0.0.UPF
     MD5 check sum: 8c825a5969375aca5c2c6ad5945b3059
     Pseudo is Projector augmented-wave + core cor, Zval =  3.0
     Generated using "atomic" code by A. Dal Corso v.6.3
     Shape of augmentation charge: PSQ
     Using radial grid of 1059 points,  4 beta functions with:
                l(1) =   0
                l(2) =   0
                l(3) =   1
                l(4) =   1
     Q(r) pseudized with 0 coefficients

     PseudoPot. # 2 for N  read from file:
     /home/hanghu/Simulaiton/QE/pseudo/N.pbe-n-kjpaw_psl.1.0.0.UPF
     MD5 check sum: 14c48229446f9f2d411169a3abcbc3fa
     Pseudo is Projector augmented-wave + core cor, Zval =  5.0
     Generated using "atomic" code by A. Dal Corso v.6.3
     Shape of augmentation charge: PSQ
     Using radial grid of 1085 points,  4 beta functions with:
                l(1) =   0
                l(2) =   0
                l(3) =   1
                l(4) =   1
     Q(r) pseudized with 0 coefficients

     Mode symmetry, C_2h (2/m)  point group:

     Atomic displacements:
     There are  48 irreducible representations

     Representation     1      1 modes -A_g  To be done

[...]

     Representation    24      1 modes -B_g  To be done

     Representation    25      1 modes -A_u  To be done

[...]

     Representation    48      1 modes -B_u  To be done

     Alpha used in Ewald sum =   2.8000

     Representation #  1 mode #   1

     Self-consistent Calculation

      thresh= 1.000E-02 alpha_mix =  0.700 |ddv_scf|^2 =  1.047E-06

[...]

     End of self-consistent calculation

     Convergence has been achieved

[...]

     Representation # 48 mode #  48

     Self-consistent Calculation

[...]

      thresh= 3.068E-08 alpha_mix =  0.700 |ddv_scf|^2 =  4.483E-15

     End of self-consistent calculation

     Convergence has been achieved

     Number of q in the star =    1
     List of q in the star:
          1   0.000000000   0.000000000   0.000000000

     Diagonalizing the dynamical matrix

     q = (    0.000000000   0.000000000   0.000000000 )

     freq (    1) =      -0.460179 [THz] =     -15.349929 [cm-1]
     freq (    2) =       1.172944 [THz] =      39.125206 [cm-1]
     freq (    3) =       1.191831 [THz] =      39.755218 [cm-1]
     freq (    4) =       2.116078 [THz] =      70.584753 [cm-1]
     freq (    5) =       2.121887 [THz] =      70.778544 [cm-1]
     freq (    6) =       4.824601 [THz] =     160.931354 [cm-1]
     freq (    7) =       9.443090 [THz] =     314.987571 [cm-1]
     freq (    8) =       9.449150 [THz] =     315.189707 [cm-1]
     freq (    9) =       9.449831 [THz] =     315.212439 [cm-1]
     freq (   10) =       9.546221 [THz] =     318.427660 [cm-1]
     freq (   11) =       9.561993 [THz] =     318.953763 [cm-1]
     freq (   12) =       9.566208 [THz] =     319.094348 [cm-1]
     freq (   13) =      16.373483 [THz] =     546.160611 [cm-1]
     freq (   14) =      16.374170 [THz] =     546.183523 [cm-1]
     freq (   15) =      16.376595 [THz] =     546.264424 [cm-1]
     freq (   16) =      16.489405 [THz] =     550.027336 [cm-1]
     freq (   17) =      16.492207 [THz] =     550.120821 [cm-1]
     freq (   18) =      16.492393 [THz] =     550.127030 [cm-1]
     freq (   19) =      17.903770 [THz] =     597.205488 [cm-1]
     freq (   20) =      17.909358 [THz] =     597.391892 [cm-1]
     freq (   21) =      17.909650 [THz] =     597.401627 [cm-1]
     freq (   22) =      18.561481 [THz] =     619.144359 [cm-1]
     freq (   23) =      18.561639 [THz] =     619.149628 [cm-1]
     freq (   24) =      18.562390 [THz] =     619.174668 [cm-1]
     freq (   25) =      21.829956 [THz] =     728.168953 [cm-1]
     freq (   26) =      23.798848 [THz] =     793.844136 [cm-1]
     freq (   27) =      34.689164 [THz] =    1157.105965 [cm-1]
     freq (   28) =      34.689843 [THz] =    1157.128620 [cm-1]
     freq (   29) =      34.690196 [THz] =    1157.140396 [cm-1]
     freq (   30) =      34.770671 [THz] =    1159.824740 [cm-1]
     freq (   31) =      34.773212 [THz] =    1159.909510 [cm-1]
     freq (   32) =      34.777177 [THz] =    1160.041758 [cm-1]
     freq (   33) =      37.902587 [THz] =    1264.294217 [cm-1]
     freq (   34) =      37.906775 [THz] =    1264.433923 [cm-1]
     freq (   35) =      37.908171 [THz] =    1264.480461 [cm-1]
     freq (   36) =      37.952736 [THz] =    1265.967003 [cm-1]
     freq (   37) =      37.955691 [THz] =    1266.065560 [cm-1]
     freq (   38) =      37.956202 [THz] =    1266.082633 [cm-1]
     freq (   39) =      38.871911 [THz] =    1296.627394 [cm-1]
     freq (   40) =      38.881332 [THz] =    1296.941649 [cm-1]
     freq (   41) =      38.888293 [THz] =    1297.173819 [cm-1]
     freq (   42) =      39.254811 [THz] =    1309.399551 [cm-1]
     freq (   43) =      39.256845 [THz] =    1309.467412 [cm-1]
     freq (   44) =      39.257164 [THz] =    1309.478032 [cm-1]
     freq (   45) =      40.903545 [THz] =    1364.395404 [cm-1]
     freq (   46) =      40.905906 [THz] =    1364.474163 [cm-1]
     freq (   47) =      40.911308 [THz] =    1364.654338 [cm-1]
     freq (   48) =      40.915464 [THz] =    1364.792984 [cm-1]

     Mode symmetry, C_2h (2/m)  point group:

     freq (  1 -  1) =        -15.3  [cm-1]   --> B_u             I
     freq (  2 -  2) =         39.1  [cm-1]   --> B_u             I
     freq (  3 -  3) =         39.8  [cm-1]   --> A_u             I
     freq (  4 -  4) =         70.6  [cm-1]   --> B_g             R
     freq (  5 -  5) =         70.8  [cm-1]   --> A_g             R
     freq (  6 -  6) =        160.9  [cm-1]   --> A_g             R
     freq (  7 -  7) =        315.0  [cm-1]   --> A_g             R
     freq (  8 -  8) =        315.2  [cm-1]   --> A_g             R
     freq (  9 -  9) =        315.2  [cm-1]   --> B_g             R
     freq ( 10 - 10) =        318.4  [cm-1]   --> A_u             I
     freq ( 11 - 11) =        319.0  [cm-1]   --> B_u             I
     freq ( 12 - 12) =        319.1  [cm-1]   --> B_u             I
     freq ( 13 - 13) =        546.2  [cm-1]   --> A_g             R
     freq ( 14 - 14) =        546.2  [cm-1]   --> B_g             R
     freq ( 15 - 15) =        546.3  [cm-1]   --> B_g             R
     freq ( 16 - 16) =        550.0  [cm-1]   --> A_u             I
     freq ( 17 - 17) =        550.1  [cm-1]   --> A_u             I
     freq ( 18 - 18) =        550.1  [cm-1]   --> B_u             I
     freq ( 19 - 19) =        597.2  [cm-1]   --> B_g             R
     freq ( 20 - 20) =        597.4  [cm-1]   --> A_g             R
     freq ( 21 - 21) =        597.4  [cm-1]   --> A_g             R
     freq ( 22 - 22) =        619.1  [cm-1]   --> A_u             I
     freq ( 23 - 23) =        619.1  [cm-1]   --> B_u             I
     freq ( 24 - 24) =        619.2  [cm-1]   --> B_u             I
     freq ( 25 - 25) =        728.2  [cm-1]   --> B_u             I
     freq ( 26 - 26) =        793.8  [cm-1]   --> A_g             R
     freq ( 27 - 27) =       1157.1  [cm-1]   --> A_u             I
     freq ( 28 - 28) =       1157.1  [cm-1]   --> B_u             I
     freq ( 29 - 29) =       1157.1  [cm-1]   --> B_u             I
     freq ( 30 - 30) =       1159.8  [cm-1]   --> B_g             R
     freq ( 31 - 31) =       1159.9  [cm-1]   --> A_g             R
     freq ( 32 - 32) =       1160.0  [cm-1]   --> A_g             R
     freq ( 33 - 33) =       1264.3  [cm-1]   --> B_g             R
     freq ( 34 - 34) =       1264.4  [cm-1]   --> A_g             R
     freq ( 35 - 35) =       1264.5  [cm-1]   --> B_g             R
     freq ( 36 - 36) =       1266.0  [cm-1]   --> A_u             I
     freq ( 37 - 37) =       1266.1  [cm-1]   --> A_u             I
     freq ( 38 - 38) =       1266.1  [cm-1]   --> B_u             I
     freq ( 39 - 39) =       1296.6  [cm-1]   --> A_g             R
     freq ( 40 - 40) =       1296.9  [cm-1]   --> A_g             R
     freq ( 41 - 41) =       1297.2  [cm-1]   --> B_g             R
     freq ( 42 - 42) =       1309.4  [cm-1]   --> B_u             I
     freq ( 43 - 43) =       1309.5  [cm-1]   --> A_u             I
     freq ( 44 - 44) =       1309.5  [cm-1]   --> B_u             I
     freq ( 45 - 45) =       1364.4  [cm-1]   --> A_u             I
     freq ( 46 - 46) =       1364.5  [cm-1]   --> B_u             I
     freq ( 47 - 47) =       1364.7  [cm-1]   --> B_g             R
     freq ( 48 - 48) =       1364.8  [cm-1]   --> A_g             R

      35h
     INITIALIZATION:

     DYNAMICAL MATRIX:

      General routines

      35h

   This run was terminated on:  21:29:28  21Nov2020

   JOB DONE.