reinit: Reading from standard input
reinit: Dumped input in INPUT_TMP.72866
************************** Dump of input data file ****************************
SystemName            nzeta
SystemLabel           nzeta
NumberOfSpecies         2
NumberOfAtoms          16
%block Chemical_Species_label
   1   5     B
   2   7     N
%endblock Chemical_Species_label
PAO.BasisType         split
PAO.BasisSize         DZP
PAO.EnergyShift       50  meV
LatticeConstant      1.0   Ang
#%block LatticeParameters
#4.7890    4.7890    4.1537   90.0000   90.0000  120.0000
#%endblock LatticeParameters
%block LatticeVectors
    5.012954616    0.000024807    0.000000115
   -2.506455827    4.341358452   -0.000000115
    0.000000145   -0.000000085    6.336166021
%endblock LatticeVectors
MeshCutoff            200. Ry       # Mesh cutoff. real space mesh
kgrid_cutoff        20. Ang
#%block kgrid_Monkhorst_Pack
# 1  0  0  0.0
# 0  1  0  0.0
# 0  0  1  0.0
#%endblock kgrid_Monkhorst_Pack
#
BandLinesScale  pi/a
#
XC.Functional          GGA
XC.Authors             PBE
MaxSCFIterations       200
DM.NumberPulay         10           # One Pulay every 5 iter
DM.MixingWeight       0.30          # New DM amount for next SCF cycle
DM.Tolerance          1.0d-5        # Tolerance in maximum difference
DM.UseSaveDM          true          # to use continuae..ion files
Diag.DivideAndConquer   false
Diag.ParallelOverK      true
SolutionMethod        diagon        # OrderN or Diagon
ElectronicTemperature  25 meV       # Temp. for Fermi smearing
# SpinPolarized         true
# MD options
MD.VariableCell        TRUE
MD.TypeOfRun           CG
MD.NumCGsteps          100
MD.MaxCGDispl          0.01 Ang
MD.MaxForceTol         0.008 eV/Ang
MD.TargetPressure      5.0 GPa
MD.MaxStressTol        0.05 GPa
%block AtomicCoordinateOrigin
0.000 0.000 0.000
%endblock AtomicCoordinateOrigin
WriteDM                true
WriteEigenvalues       true
WriteCoorXmol          true
WriteMDXmol            true
WriteMDHistory         true
WriteXml               false
MD.UseSaveCG           true
MD.UseSaveXV           true
# Atomic  inates
AtomicCoordinatesFormat  Ang    # Format for  inates
AtomCoorFormatOut        Ang
%block AtomicCoordinatesAndAtomicSpecies
 0.00002     1.44712     1.28428     1
 1.25323     0.72357     4.45189     1
 0.00002     1.44712     5.05195     2
 1.25323     0.72357     1.88422     2
 2.50649     1.44713     1.28428     1
 3.75971     0.72359     4.45189     1
 2.50649     1.44713     5.05195     2
 3.75971     0.72359     1.88422     2
-1.25321     3.61780     1.28428     1
 0.00001     2.89425     4.45189     1
-1.25321     3.61780     5.05195     2
 0.00001     2.89425     1.88422     2
 1.25327     3.61781     1.28428     1
 2.50648     2.89426     4.45189     1
 1.25327     3.61781     5.05195     2
 2.50648     2.89426     1.88422     2
%endblock AtomicCoordinatesAndAtomicSpecies
************************** End of input data file *****************************

reinit: -----------------------------------------------------------------------
reinit: System Name: nzeta
reinit: -----------------------------------------------------------------------
reinit: System Label: nzeta
reinit: -----------------------------------------------------------------------
Siesta Version: siesta-4.1--736
Architecture  : unknown
Compiler flags: mpifort -fPIC -O2 -xCore-AVX2 -ftz -fp-speculation=safe -fp-model source
PP flags      : -DFC_HAVE_ABORT -DMPI -DCDF -I/cvmfs/soft.computecanada.ca/easybuild/softwaree/2017/avx2/Compiler/intel2018.3/netcdf-fortran/4.4.4/include
Libraries     : -Wl,-Bstatic -Wl,--start-group -lmkl_scalapack_lp64 -lmkl_blacs_openmpi_lp64  -lmkl_intel_lp64 -lmkl_sequential -lmkl_core -Wl,--end-group -Wl,-Bdynamic -lnetcdff
PARALLEL version
NetCDF support

>> Start of run:  24-NOV-2020  12:48:29

initatom: Reading input for the pseudopotentials and atomic orbitals ----------
Species number:   1 Atomic number:    5 Label: B
Species number:   2 Atomic number:    7 Label: N

Ground state valence configuration:   2s02  2p01
Reading pseudopotential information in formatted form from B.psf

Valence configuration for pseudopotential generation:
2s( 2.00) rc: 1.74
2p( 1.00) rc: 1.74
3d( 0.00) rc: 1.74
4f( 0.00) rc: 1.74
Ground state valence configuration:   2s02  2p03
Reading pseudopotential information in formatted form from N.psf

Valence configuration for pseudopotential generation:
2s( 2.00) rc: 1.48
2p( 3.00) rc: 1.48
3d( 0.00) rc: 1.48
4f( 0.00) rc: 1.48
For B, standard SIESTA heuristics set lmxkb to 3
 (one more than the basis l, including polarization orbitals).
Use PS.lmax or PS.KBprojectors blocks to override.
For N, standard SIESTA heuristics set lmxkb to 3
 (one more than the basis l, including polarization orbitals).
Use PS.lmax or PS.KBprojectors blocks to override.

<basis_specs>
B                    Z=   5    Mass=  10.810        Charge= 0.17977+309
Lmxo=1 Lmxkb= 3    BasisType=split      Semic=F
L=0  Nsemic=0  Cnfigmx=2
          n=1  nzeta=2  polorb=0
            splnorm:   0.15000
               vcte:    0.0000
               rinn:    0.0000
               qcoe:    0.0000
               qyuk:    0.0000
               qwid:   0.10000E-01
                rcs:    0.0000      0.0000
            lambdas:    1.0000      1.0000
L=1  Nsemic=0  Cnfigmx=2
          n=1  nzeta=2  polorb=1
            splnorm:   0.15000
               vcte:    0.0000
               rinn:    0.0000
               qcoe:    0.0000
               qyuk:    0.0000
               qwid:   0.10000E-01
                rcs:    0.0000      0.0000
            lambdas:    1.0000      1.0000
L=0  Nkbl=1  erefs: 0.17977+309
L=1  Nkbl=1  erefs: 0.17977+309
L=2  Nkbl=1  erefs: 0.17977+309
L=3  Nkbl=1  erefs: 0.17977+309
</basis_specs>

atom: Called for B                     (Z =   5)

read_vps: Pseudopotential generation method:
read_vps: ATM3      Troullier-Martins
Total valence charge:    3.00000

read_vps: Pseudopotential includes a core correction:
read_vps: Pseudo-core for xc-correction

xc_check: Exchange-correlation functional:
xc_check: GGA Perdew, Burke & Ernzerhof 1996
V l=0 = -2*Zval/r beyond r=  1.7165
V l=1 = -2*Zval/r beyond r=  1.7165
V l=2 = -2*Zval/r beyond r=  1.7165
V l=3 = -2*Zval/r beyond r=  1.6951
All V_l potentials equal beyond r=  1.7165
This should be close to max(r_c) in ps generation
All pots = -2*Zval/r beyond r=  1.7165

VLOCAL1: 99.0% of the norm of Vloc inside     14.733 Ry
VLOCAL1: 99.9% of the norm of Vloc inside     33.577 Ry
atom: Maximum radius for 4*pi*r*r*local-pseudopot. charge    2.04484
atom: Maximum radius for r*vlocal+2*Zval:    1.75994
GHOST: No ghost state for L =  0
GHOST: No ghost state for L =  1
GHOST: No ghost state for L =  2
GHOST: No ghost state for L =  3

KBgen: Kleinman-Bylander projectors:
   l= 0   rc=  1.897051   el= -0.693730   Ekb=  4.595746   kbcos=  0.286105
   l= 1   rc=  1.920920   el= -0.265236   Ekb= -2.350715   kbcos= -0.315747
   l= 2   rc=  2.044840   el=  0.002055   Ekb= -0.690767   kbcos= -0.013822
   l= 3   rc=  2.149707   el=  0.003188   Ekb= -0.315358   kbcos= -0.002055

KBgen: Total number of  Kleinman-Bylander projectors:   16
atom: -------------------------------------------------------------------------

atom: SANKEY-TYPE ORBITALS:
atom: Selected multiple-zeta basis: split

SPLIT: Orbitals with angular momentum L= 0

SPLIT: Basis orbitals for state 2s

SPLIT: PAO cut-off radius determined from an
SPLIT: energy shift=  0.003675 Ry

   izeta = 1
                 lambda =    1.000000
                     rc =    5.992324
                 energy =   -0.690528
                kinetic =    0.558121
    potential(screened) =   -1.248649
       potential(ionic) =   -3.246844

   izeta = 2
                 rmatch =    4.275693
              splitnorm =    0.150000
                 energy =   -0.596762
                kinetic =    0.870329
    potential(screened) =   -1.467091
       potential(ionic) =   -3.591550

[...]

SPLIT: Basis orbitals for state 2p

[...]

POLgen: Perturbative polarization orbital with L=  2

POLgen: Polarization orbital for state 2p

   izeta = 1
                     rc =    7.504449
                 energy =    0.624150
                kinetic =    1.361189
    potential(screened) =   -0.737039
       potential(ionic) =   -2.313842
atom: Total number of Sankey-type orbitals: 13

atm_pop: Valence configuration (for local Pseudopot. screening):
 2s( 2.00)
 2p( 1.00)
Vna: chval, zval:    3.00000   3.00000

Vna:  Cut-off radius for the neutral-atom potential:   7.504449
comcore: Pseudo-core radius Rcore=  2.122997

atom: _________________________________________________________________________

<basis_specs>
N                    Z=   7    Mass=  14.010        Charge= 0.17977+309
Lmxo=1 Lmxkb= 3    BasisType=split      Semic=F
L=0  Nsemic=0  Cnfigmx=2
          n=1  nzeta=2  polorb=0
            splnorm:   0.15000
               vcte:    0.0000
               rinn:    0.0000
               qcoe:    0.0000
               qyuk:    0.0000
               qwid:   0.10000E-01
                rcs:    0.0000      0.0000
            lambdas:    1.0000      1.0000
L=1  Nsemic=0  Cnfigmx=2
          n=1  nzeta=2  polorb=1
            splnorm:   0.15000
               vcte:    0.0000
               rinn:    0.0000
               qcoe:    0.0000
               qyuk:    0.0000
               qwid:   0.10000E-01
                rcs:    0.0000      0.0000
            lambdas:    1.0000      1.0000
L=0  Nkbl=1  erefs: 0.17977+309
L=1  Nkbl=1  erefs: 0.17977+309
L=2  Nkbl=1  erefs: 0.17977+309
L=3  Nkbl=1  erefs: 0.17977+309
</basis_specs>

atom: Called for N                     (Z =   7)

read_vps: Pseudopotential generation method:
read_vps: ATM3      Troullier-Martins
Total valence charge:    5.00000

read_vps: Pseudopotential includes a core correction:
read_vps: Pseudo-core for xc-correction

xc_check: Exchange-correlation functional:
xc_check: GGA Perdew, Burke & Ernzerhof 1996
V l=0 = -2*Zval/r beyond r=  1.4606
V l=1 = -2*Zval/r beyond r=  1.4606
V l=2 = -2*Zval/r beyond r=  1.4606
V l=3 = -2*Zval/r beyond r=  1.4606
All V_l potentials equal beyond r=  1.4606
This should be close to max(r_c) in ps generation
All pots = -2*Zval/r beyond r=  1.4606

VLOCAL1: 99.0% of the norm of Vloc inside     20.347 Ry
VLOCAL1: 99.9% of the norm of Vloc inside     46.372 Ry
atom: Maximum radius for 4*pi*r*r*local-pseudopot. charge    1.76189
atom: Maximum radius for r*vlocal+2*Zval:    1.53550
GHOST: No ghost state for L =  0
GHOST: No ghost state for L =  1
GHOST: No ghost state for L =  2
GHOST: No ghost state for L =  3

KBgen: Kleinman-Bylander projectors:
   l= 0   rc=  1.634559   el= -1.363963   Ekb=  5.296955   kbcos=  0.335621
   l= 1   rc=  1.614250   el= -0.521451   Ekb= -5.259161   kbcos= -0.433408
   l= 2   rc=  1.718383   el=  0.001991   Ekb= -1.271464   kbcos= -0.007566
   l= 3   rc=  1.761893   el=  0.003093   Ekb= -0.494769   kbcos= -0.001015

KBgen: Total number of  Kleinman-Bylander projectors:   16
atom: -------------------------------------------------------------------------

atom: SANKEY-TYPE ORBITALS:
atom: Selected multiple-zeta basis: split

[...]

[...]
           4       1:   20    1:   10   22:   27
           5       1:   20   11:   20    1:    7
           6       1:   20   11:   20    8:   14
           7       1:   20   11:   20   15:   21
           8       1:   20   11:   20   22:   27

[...]

outcell: Cell vector modules (Ang)   :    5.009036    5.009036    6.120378
outcell: Cell angles (23,13,12) (deg):     90.0000     90.0000    120.0239
outcell: Cell volume (Ang**3)        :    132.9574
<dSpData1D:S at geom step 18
  <sparsity:sparsity for geom step 18
    nrows_g=208 nrows=40 sparsity=2.7655 nnzs=119646, refcount: 7>
  <dData1D:(new from dSpData1D) n=119646, refcount: 1>
refcount: 1>
new_DM -- step:    19
Re-using DM from previous geometries...
Number of DMs in history: 1
 DM extrapolation coefficients:
1   1.00000
New DM after history re-use:
<dSpData2D:SpM extrapolated using coords
  <sparsity:sparsity for geom step 18
    nrows_g=208 nrows=40 sparsity=2.7655 nnzs=119646, refcount: 8>
  <dData2D:(temp array for extrapolation) n=119646 m=1, refcount: 1>
refcount: 1>
Note: For starting DM, Qtot, Tr[D*S] =         64.00000000         64.06493483
No. of atoms with KB's overlaping orbs in proc 0. Max # of overlaps:     112     599
New grid distribution:   1
           1       1:   20    1:   10    1:    7
           2       1:   20    1:   10    8:   14
           3       1:   20    1:   10   15:   21
           4       1:   20    1:   10   22:   27
           5       1:   20   11:   20    1:    7
           6       1:   20   11:   20    8:   14
           7       1:   20   11:   20   15:   21
           8       1:   20   11:   20   22:   27

[...]

cgvc: Finished line minimization    1.  Mean atomic displacement =    0.0057

[...]

                        Begin CG opt. move =    100
 Kpoints in:          224 . Kpoints trimmed:          224

siesta: k-grid: Number of k-points =   224
siesta: k-grid: Cutoff (effective) =    20.013 Ang
siesta: k-grid: Supercell and displacements
siesta: k-grid:    8   8   0      0.500
siesta: k-grid:    0   8   0      0.500
siesta: k-grid:    0   0   7      0.000

superc: Internal auxiliary supercell:     5 x     5 x     3  =      75
superc: Number of atoms, orbitals, and projectors:   1200  15600  19200

[...]

outcell: Cell vector modules (Ang)   :    5.008838    5.008837    6.159476
outcell: Cell angles (23,13,12) (deg):     90.0001     89.9999    120.0753
outcell: Cell volume (Ang**3)        :    133.7267
<dSpData1D:S at geom step 100
  <sparsity:sparsity for geom step 100
    nrows_g=208 nrows=40 sparsity=2.8521 nnzs=123393, refcount: 7>
  <dData1D:(new from dSpData1D) n=123393, refcount: 1>
refcount: 1>
new_DM -- step:   101
Re-using DM from previous geometries...
Number of DMs in history: 1
 DM extrapolation coefficients:
1   1.00000
New DM after history re-use:
<dSpData2D:SpM extrapolated using coords
  <sparsity:sparsity for geom step 100
    nrows_g=208 nrows=40 sparsity=2.8521 nnzs=123393, refcount: 8>
  <dData2D:(temp array for extrapolation) n=123393 m=1, refcount: 1>
refcount: 1>
No. of atoms with KB's overlaping orbs in proc 0. Max # of overlaps:     114     637
New grid distribution:   1
           1       1:   20    1:   10    1:    7
           2       1:   20    1:   10    8:   14
           3       1:   20    1:   10   15:   21
           4       1:   20    1:   10   22:   27
           5       1:   20   11:   20    1:    7
           6       1:   20   11:   20    8:   14
           7       1:   20   11:   20   15:   21
           8       1:   20   11:   20   22:   27

InitMesh: MESH =    40 x    40 x    54 =       86400
InitMesh: (bp) =    20 x    20 x    27 =       10800
InitMesh: Mesh cutoff (required, used) =   200.000   212.423 Ry
ExtMesh (bp) on 0 =    96 x    86 x    79 =      652224
New grid distribution:   2
           1      11:   20   11:   20    1:   14
           2       1:   10    1:   10    1:   14
           3      11:   20   11:   20   15:   27
           4       1:   10    1:   10   15:   27
           5       1:   10   11:   20    1:   14
           6      11:   20    1:   10    1:   14
           7       1:   10   11:   20   15:   27
           8      11:   20    1:   10   15:   27
New grid distribution:   3
           1      11:   20   11:   20    1:   14
           2       1:   10    1:   10    1:   14
           3      11:   20   11:   20   15:   27
           4       1:   10    1:   10   15:   27
           5       1:   10   11:   20    1:   14
           6      11:   20    1:   10    1:   14
           7       1:   10   11:   20   15:   27
           8      11:   20    1:   10   15:   27
Setting up quadratic distribution...
ExtMesh (bp) on 0 =    86 x    86 x    86 =      636056
PhiOnMesh: Number of (b)points on node 0 =                 1400
PhiOnMesh: nlist on node 0 =               310948

        iscf     Eharris(eV)        E_KS(eV)     FreeEng(eV)     dDmax    Ef(eV) dHmax(eV)
   scf:    1    -3094.131080    -3094.133870    -3094.133870  0.000299 -5.786233  0.001066
   scf:    2    -3094.133869    -3094.133870    -3094.133870  0.000056 -5.786188  0.002198
   scf:    3    -3094.133871    -3094.133871    -3094.133871  0.000036 -5.786212  0.000051
   scf:    4    -3094.133871    -3094.133871    -3094.133871  0.000003 -5.786206  0.000009

SCF Convergence by DM+H criterion
max |DM_out - DM_in|         :     0.0000030019
max |H_out - H_in|      (eV) :     0.0000094980
SCF cycle converged after 4 iterations

Using DM_out to compute the final energy and forces
No. of atoms with KB's overlaping orbs in proc 0. Max # of overlaps:     114     637

siesta: E_KS(eV) =            -3094.1339

siesta: Atomic forces (eV/Ang):
   Tot    0.000814   -0.000066    0.010965
   Max    0.017446
   Res    0.006685    sqrt( Sum f_i^2 / 3N )
   Max    0.017446    constrained

Stress-tensor-Voigt (kbar):      -49.42      -49.20      -51.55        0.19       -0.00        0.01
(Free)E + p*V (eV/cell)    -3089.9558
Target enthalpy (eV/cell)    -3089.9606

siesta: Stress tensor (static) (eV/Ang**3):
        -0.030847    0.000120    0.000003
         0.000120   -0.030709   -0.000003
         0.000003   -0.000003   -0.032173

siesta: Pressure (static):         50.05768022  kBar

siesta: Stress tensor (total) (eV/Ang**3):
        -0.030847    0.000120    0.000003
         0.000120   -0.030709   -0.000003
         0.000003   -0.000003   -0.032173

siesta: Pressure (total):         50.05768022  kBar

cgvc: Finished line minimization    8.  Mean atomic displacement =    0.0009

outcoor: Final (unrelaxed) atomic coordinates (Ang):
   -0.00037056    1.44449484    1.53845635   1       1  B
    1.25120734    0.72189722    4.61832707   1       2  B
   -0.00063283    1.44464518    4.61866900   2       3  N
    1.25146019    0.72174592    1.53882577   2       4  N
    2.50388771    1.44294499    1.53846066   1       5  B
    3.75568318    0.72021329    4.61832900   1       6  B
    2.50348406    1.44317509    4.61869245   2       7  N
    3.75591603    0.72008354    1.53882432   2       8  N
   -1.25433479    3.61274576    1.53845663   1       9  B
   -0.00230494    2.88989176    4.61832681   1      10  B
   -1.25464287    3.61293077    4.61869197   2      11  N
   -0.00193373    2.88967433    1.53881854   2      12  N
    1.25035092    3.61094840    1.53845554   1      13  B
    2.50203425    2.88829501    4.61833074   1      14  B
    1.25010207    3.61109139    4.61867669   2      15  N
    2.50232304    2.88812798    1.53882408   2      16  N

outcell: Unit cell vectors (Ang):
        5.008837   -0.003293    0.000004
       -2.507271    4.336133   -0.000004
        0.000006   -0.000003    6.159476

outcell: Cell vector modules (Ang)   :    5.008838    5.008837    6.159476
outcell: Cell angles (23,13,12) (deg):     90.0001     89.9999    120.0753
outcell: Cell volume (Ang**3)        :    133.7267

coxmol: Writing XMOL coordinates into file nzeta.xyz

siesta: Eigenvalues (eV):
  ik is    eps
   1  1 -25.01 -24.91 -24.20 -24.11 -23.04 -22.97 -22.55 -22.50 -16.14 -16.11
        -15.65 -15.63 -14.29 -14.26 -14.15 -14.12 -13.52 -13.49 -12.68 -12.35
        -12.16 -11.84 -11.57 -11.54 -11.44 -10.87 -10.77 -10.75  -9.80  -9.34
         -9.04  -8.69  -3.00  -2.75  -2.24  -1.97  -0.39  -0.12   0.59   1.18
          2.12   2.40   2.85   2.95   3.93   4.00   4.35   4.47   4.54   4.67
          4.69   5.32   5.33   5.38   5.61   5.70   6.69   6.70   7.98   8.22
          8.61   8.82   9.36   9.43   9.58   9.68  10.64  11.06  11.51  11.68
         11.76  11.82  13.72  13.86  14.17  14.25  15.24  15.50  16.63  17.09
         17.29  17.79  17.98  18.38  18.94  19.73  20.15  20.41  20.71  20.85
         21.00  21.58  22.15  22.47  22.94  23.26  27.26  27.39  27.40  28.36
         28.40  29.51  29.68  30.26  30.30  30.71  30.80  30.94  31.26  32.13
         32.61  32.65  33.00  34.29  34.60  35.05  35.77  36.18  36.82  37.60
         40.18  40.33  40.77  41.21  41.63  42.23  43.53  44.49  44.92  46.55
         46.65  47.33  47.82  48.05  48.09  48.20  48.54  50.33  50.34  50.56
         51.31  51.72  51.91  52.89  53.03  53.71  54.53  55.16  55.40  56.28
         58.36  58.77  59.53  60.12  60.87  60.97  61.20  61.29  61.75  63.95
         65.96  66.52  67.61  68.20  69.76  70.67  70.81  71.07  71.99  72.28
         72.84  73.54  74.01  75.70  76.13  76.60  77.37  78.75  79.49  79.61
         80.19  81.68  82.57  84.14  92.04  93.46  94.03  97.36  99.92 102.27
        104.15 105.26 105.62 107.06 107.14 107.30 108.43 109.70 111.38 115.51
        115.82 117.83 118.87 119.76 121.02 122.57 126.03 127.94
   2  1 -25.41 -25.30 -23.57 -23.49 -22.96 -22.90 -22.55 -22.51 -16.58 -16.56
        -16.18 -16.14 -15.53 -15.50 -13.48 -13.45 -13.14 -12.96 -12.93 -12.51
        -11.97 -11.94 -11.01 -10.98 -10.56 -10.23 -10.21 -10.05  -9.67  -9.24
         -9.04  -8.70  -3.28  -2.96  -2.64  -2.31  -1.71  -1.38   0.44   1.36
          2.08   2.24   3.10   3.23   3.32   3.41   3.71   3.78   4.21   4.60
          5.06   5.20   5.24   5.52   5.59   5.79   5.89   5.92   8.78   8.95
          9.05   9.07   9.82   9.92  10.37  10.95  11.74  11.98  12.40  12.47
         12.49  12.50  13.73  13.73  14.02  14.03  14.14  14.39  16.84  17.09
         17.23  17.54  17.98  18.75  19.91  20.24  20.65  20.76  21.22  21.36
         21.37  21.66  22.22  22.58  23.01  23.32  26.56  26.62  27.50  27.60
         27.74  28.38  28.51  28.73  29.15  29.96  30.72  31.25  31.54  31.92
         32.55  33.02  33.25  34.51  34.74  35.71  35.87  35.98  37.23  37.35
         38.24  38.42  38.94  39.30  39.78  40.86  42.66  43.39  44.59  44.83
         45.16  46.31  46.76  46.80  47.22  48.14  48.19  49.19  50.89  52.12
         52.78  53.07  53.74  54.10  54.58  55.52  55.84  55.96  56.53  57.44
         57.92  59.64  59.68  61.50  62.44  62.80  64.32  64.56  65.29  66.83
         67.17  67.44  69.18  69.25  69.41  70.05  70.43  70.82  70.94  71.79
         72.65  72.78  73.33  74.13  76.22  76.80  78.58  78.75  79.39  80.17
         80.33  82.84  83.36  84.85  90.70  92.68  93.26  97.24  97.66  99.23
        100.65 101.16 103.88 106.17 108.43 109.64 110.79 112.22 113.48 119.05
        120.96 121.85 122.58 124.76 125.96 126.76 128.70 129.28
   3  1 -25.67 -25.56 -23.00 -22.94 -22.84 -22.79 -22.58 -22.55 -16.91 -16.89
        -16.66 -16.63 -16.51 -16.48 -13.49 -12.84 -12.82 -12.79 -12.48 -12.45
        -12.25 -12.22 -10.07 -10.05  -9.79  -9.77  -9.71  -9.48  -9.29  -9.08
         -9.07  -8.74  -3.52  -3.14  -3.12  -2.91  -2.73  -2.52   0.18   1.28
          2.09   2.14   2.28   2.32   2.67   2.69   3.44   3.50   4.04   4.09
          4.78   4.93   5.73   5.86   6.10   6.24   6.35   6.36   8.52   8.85
          9.33   9.76  10.09  10.55  10.82  11.08  13.21  13.22  13.25  13.27
         13.28  13.39  14.00  14.01  14.15  14.19  14.25  14.29  17.01  17.13
         17.19  17.35  17.59  18.12  20.88  21.03  21.04  21.11  21.22  21.28
         21.44  21.84  22.39  22.57  23.77  24.42  25.85  25.92  25.99  26.21
         26.31  26.94  27.05  27.12  29.71  30.12  30.25  30.69  31.37  31.51
         31.68  32.05  32.78  33.15  33.36  34.45  35.39  36.37  37.20  37.58
         37.85  38.15  38.55  39.52  39.92  40.24  41.44  42.18  42.69  43.22
         43.71  43.95  44.29  44.62  45.03  45.70  48.22  49.47  53.15  54.43
         54.47  54.64  55.28  55.40  55.57  56.41  56.87  57.44  57.87  57.94
         58.91  59.52  60.45  60.70  65.50  66.57  67.33  67.73  68.70  68.97
         69.25  69.68  69.79  70.90  71.18  71.33  72.01  72.34  72.44  72.71
         73.07  73.61  73.69  73.94  75.58  75.90  77.62  78.21  78.38  81.13
[...]
          8.17   8.46   8.50   8.50   9.92  10.14  10.30  10.63  11.27  11.49
         11.58  11.64  13.77  13.90  14.20  14.29  16.07  16.41  16.56  17.00
         17.07  17.33  17.40  17.85  19.48  20.00  20.12  20.28  20.29  20.51
         20.84  20.89  22.55  22.82  22.84  23.12  27.03  27.56  27.64  28.47
         28.48  29.57  29.96  30.22  30.68  30.82  30.91  31.03  31.32  32.19
         32.58  32.64  33.19  33.89  34.87  35.17  35.54  35.94  36.53  37.40
         40.78  41.18  41.47  42.02  42.35  42.60  43.21  44.20  45.55  46.66
         46.75  47.63  47.73  47.74  47.93  48.08  48.91  49.69  49.87  51.19
         51.46  51.96  52.06  52.96  53.08  53.94  54.18  55.22  55.24  56.11
         57.75  58.12  58.51  58.61  60.11  60.39  61.00  61.84  62.60  63.63
         65.93  66.46  67.32  68.08  69.63  70.67  71.21  71.82  72.36  72.70
         73.90  73.99  74.60  75.22  76.57  77.10  77.46  77.86  78.56  79.56
         79.66  80.14  82.18  83.09  92.50  93.03  95.08  96.19  99.61 101.75
        104.97 105.48 106.80 107.34 108.17 108.64 109.35 109.97 111.25 112.62
        113.50 115.11 116.80 117.83 119.31 121.94 125.70 127.61
siesta: Fermi energy =      -5.786206 eV

siesta: Program's energy decomposition (eV):
siesta: Ebs     =      -975.816864
siesta: Eions   =      4351.079080
siesta: Ena     =       790.965826
siesta: Ekin    =      1986.345529
siesta: Enl     =      -329.383489
siesta: Eso     =         0.000000
siesta: Eldau   =         0.000000
siesta: DEna    =       -83.038221
siesta: DUscf   =         9.213513
siesta: DUext   =         0.000000
siesta: Exc     =     -1117.157949
siesta: eta*DQ  =         0.000000
siesta: Emadel  =         0.000000
siesta: Emeta   =         0.000000
siesta: Emolmec =         0.000000
siesta: Ekinion =         0.000000
siesta: Eharris =     -3094.133871
siesta: Etot    =     -3094.133871
siesta: FreeEng =     -3094.133871

siesta: Final energy (eV):
siesta:  Band Struct. =    -975.816864
siesta:       Kinetic =    1986.345529
siesta:       Hartree =     771.594112
siesta:       Eldau   =       0.000000
siesta:       Eso     =       0.000000
siesta:    Ext. field =       0.000000
siesta:   Exch.-corr. =   -1117.157949
siesta:  Ion-electron =   -3438.562831
siesta:       Ion-ion =   -1296.352732
siesta:       Ekinion =       0.000000
siesta:         Total =   -3094.133871
siesta:         Fermi =      -5.786206

siesta: Atomic forces (eV/Ang):
siesta:      1   -0.016185    0.008610    0.003328
siesta:      2    0.009639   -0.005314    0.003183
siesta:      3   -0.017446    0.009911   -0.001761
siesta:      4    0.011553   -0.006687   -0.001598
siesta:      5   -0.005487    0.002638    0.003352
siesta:      6    0.005517   -0.002948    0.002965
siesta:      7    0.004566   -0.002719   -0.002289
siesta:      8    0.008901   -0.004738   -0.001580
siesta:      9    0.007616   -0.003827    0.003365
siesta:     10    0.000509   -0.000527    0.002932
siesta:     11    0.010298   -0.005842   -0.002233
siesta:     12   -0.006226    0.003636   -0.001734
siesta:     13   -0.011039    0.007138    0.003417
siesta:     14    0.006314   -0.004050    0.002993
siesta:     15   -0.013601    0.008121   -0.001820
siesta:     16    0.005885   -0.003468   -0.001555
siesta: ----------------------------------------
siesta:    Tot    0.000814   -0.000066    0.010965

siesta: Stress tensor (static) (eV/Ang**3):
siesta:    -0.030847    0.000120    0.000003
siesta:     0.000120   -0.030709   -0.000003
siesta:     0.000003   -0.000003   -0.032173

siesta: Constrained stress tensor (static) (eV/Ang**3):
siesta:    -0.030847    0.000120    0.000003
siesta:     0.000120   -0.030709   -0.000003
siesta:     0.000003   -0.000003   -0.032173

siesta: Cell volume =        133.726670 Ang**3

siesta: Pressure (static):
siesta:                Solid            Molecule  Units
siesta:           0.00034028          0.00033838  Ry/Bohr**3
siesta:           0.03124321          0.03106879  eV/Ang**3
siesta:          50.05768022         49.77822942  kBar
(Free)E+ p_basis*V_orbitals  =       -3083.498925
(Free)Eharris+ p_basis*V_orbitals  =       -3083.498925
>> End of run:  24-NOV-2020  13:37:31
Job completed