reinit: Reading from standard input
reinit: Dumped input in INPUT_TMP.06843
************************** Dump of input data file ****************************
SystemName            nzeta
SystemLabel           nzeta
NumberOfSpecies         2
NumberOfAtoms          16
%block Chemical_Species_label
   1   5     B
   2   7     N
%endblock Chemical_Species_label
PAO.BasisType         split
PAO.BasisSize         DZP
PAO.EnergyShift       50  meV
LatticeConstant      1.0   Ang
#%block LatticeParameters
#4.7890    4.7890    4.1537   90.0000   90.0000  120.0000
#%endblock LatticeParameters
%block LatticeVectors
    5.012954616    0.000024807    0.000000115
   -2.506455827    4.341358452   -0.000000115
    0.000000145   -0.000000085    6.336166021
%endblock LatticeVectors
MeshCutoff            200. Ry       # Mesh cutoff. real space mesh
kgrid_cutoff        20. Ang
#%block kgrid_Monkhorst_Pack
# 1  0  0  0.0
# 0  1  0  0.0
# 0  0  1  0.0
#%endblock kgrid_Monkhorst_Pack
#
BandLinesScale  pi/a
#
XC.Functional          GGA
XC.Authors             PBE
MaxSCFIterations       200
DM.NumberPulay         10           # One Pulay every 5 iter
DM.MixingWeight       0.30          # New DM amount for next SCF cycle
DM.Tolerance          1.0d-5        # Tolerance in maximum difference
DM.UseSaveDM          true          # to use continuae..ion files
Diag.DivideAndConquer   false
Diag.ParallelOverK      true
SolutionMethod        diagon        # OrderN or Diagon
ElectronicTemperature  25 meV       # Temp. for Fermi smearing
# SpinPolarized         true
# MD options
MD.VariableCell        TRUE
MD.TypeOfRun           CG
MD.NumCGsteps          100
MD.MaxCGDispl          0.01 Ang
MD.MaxForceTol         0.008 eV/Ang
MD.TargetPressure      5.0 GPa
MD.MaxStressTol        0.05 GPa
%block AtomicCoordinateOrigin
0.000 0.000 0.000
%endblock AtomicCoordinateOrigin
WriteDM                true
WriteEigenvalues       true
WriteCoorXmol          true
WriteMDXmol            true
WriteMDHistory         true
WriteXml               false
MD.UseSaveCG           true
MD.UseSaveXV           true
# Atomic  inates
AtomicCoordinatesFormat  Ang    # Format for  inates
AtomCoorFormatOut        Ang
%block AtomicCoordinatesAndAtomicSpecies
 0.00002     1.44712     1.38428     1
 1.25323     0.72357     4.55189     1
 0.00002     1.44712     4.95195     2
 1.25323     0.72357     1.78422     2
 2.50649     1.44713     1.38428     1
 3.75971     0.72359     4.55189     1
 2.50649     1.44713     4.95195     2
 3.75971     0.72359     1.78422     2
-1.25321     3.61780     1.38428     1
 0.00001     2.89425     4.55189     1
-1.25321     3.61780     4.95195     2
 0.00001     2.89425     1.78422     2
 1.25327     3.61781     1.38428     1
 2.50648     2.89426     4.55189     1
 1.25327     3.61781     4.95195     2
 2.50648     2.89426     1.78422     2
%endblock AtomicCoordinatesAndAtomicSpecies
************************** End of input data file *****************************

reinit: -----------------------------------------------------------------------
reinit: System Name: nzeta
reinit: -----------------------------------------------------------------------
reinit: System Label: nzeta
reinit: -----------------------------------------------------------------------
Siesta Version: siesta-4.1--736
Architecture  : unknown
Compiler flags: mpifort -fPIC -O2 -xCore-AVX2 -ftz -fp-speculation=safe -fp-model source
PP flags      : -DFC_HAVE_ABORT -DMPI -DCDF -I/cvmfs/soft.computecanada.ca/easybuild/softwaree/2017/avx2/Compiler/intel2018.3/netcdf-fortran/4.4.4/include
Libraries     : -Wl,-Bstatic -Wl,--start-group -lmkl_scalapack_lp64 -lmkl_blacs_openmpi_lp64  -lmkl_intel_lp64 -lmkl_sequential -lmkl_core -Wl,--end-group -Wl,-Bdynamic -lnetcdff
PARALLEL version
NetCDF support

>> Start of run:  24-NOV-2020  12:48:32

initatom: Reading input for the pseudopotentials and atomic orbitals ----------
Species number:   1 Atomic number:    5 Label: B
Species number:   2 Atomic number:    7 Label: N

Ground state valence configuration:   2s02  2p01
Reading pseudopotential information in formatted form from B.psf

Valence configuration for pseudopotential generation:
2s( 2.00) rc: 1.74
2p( 1.00) rc: 1.74
3d( 0.00) rc: 1.74
4f( 0.00) rc: 1.74
Ground state valence configuration:   2s02  2p03
Reading pseudopotential information in formatted form from N.psf

Valence configuration for pseudopotential generation:
2s( 2.00) rc: 1.48
2p( 3.00) rc: 1.48
3d( 0.00) rc: 1.48
4f( 0.00) rc: 1.48
For B, standard SIESTA heuristics set lmxkb to 3
 (one more than the basis l, including polarization orbitals).
Use PS.lmax or PS.KBprojectors blocks to override.
For N, standard SIESTA heuristics set lmxkb to 3
 (one more than the basis l, including polarization orbitals).
Use PS.lmax or PS.KBprojectors blocks to override.

<basis_specs>
B                    Z=   5    Mass=  10.810        Charge= 0.17977+309
Lmxo=1 Lmxkb= 3    BasisType=split      Semic=F
L=0  Nsemic=0  Cnfigmx=2
          n=1  nzeta=2  polorb=0
            splnorm:   0.15000
               vcte:    0.0000
               rinn:    0.0000
               qcoe:    0.0000
               qyuk:    0.0000
               qwid:   0.10000E-01
                rcs:    0.0000      0.0000
            lambdas:    1.0000      1.0000
L=1  Nsemic=0  Cnfigmx=2
          n=1  nzeta=2  polorb=1
            splnorm:   0.15000
               vcte:    0.0000
               rinn:    0.0000
               qcoe:    0.0000
               qyuk:    0.0000
               qwid:   0.10000E-01
                rcs:    0.0000      0.0000
            lambdas:    1.0000      1.0000
L=0  Nkbl=1  erefs: 0.17977+309
L=1  Nkbl=1  erefs: 0.17977+309
L=2  Nkbl=1  erefs: 0.17977+309
L=3  Nkbl=1  erefs: 0.17977+309
</basis_specs>

atom: Called for B                     (Z =   5)

read_vps: Pseudopotential generation method:
read_vps: ATM3      Troullier-Martins
Total valence charge:    3.00000

read_vps: Pseudopotential includes a core correction:
read_vps: Pseudo-core for xc-correction

xc_check: Exchange-correlation functional:
xc_check: GGA Perdew, Burke & Ernzerhof 1996
V l=0 = -2*Zval/r beyond r=  1.7165
V l=1 = -2*Zval/r beyond r=  1.7165
V l=2 = -2*Zval/r beyond r=  1.7165
V l=3 = -2*Zval/r beyond r=  1.6951
All V_l potentials equal beyond r=  1.7165
This should be close to max(r_c) in ps generation
All pots = -2*Zval/r beyond r=  1.7165

VLOCAL1: 99.0% of the norm of Vloc inside     14.733 Ry
VLOCAL1: 99.9% of the norm of Vloc inside     33.577 Ry
atom: Maximum radius for 4*pi*r*r*local-pseudopot. charge    2.04484
atom: Maximum radius for r*vlocal+2*Zval:    1.75994
GHOST: No ghost state for L =  0
GHOST: No ghost state for L =  1
GHOST: No ghost state for L =  2
GHOST: No ghost state for L =  3

KBgen: Kleinman-Bylander projectors:
   l= 0   rc=  1.897051   el= -0.693730   Ekb=  4.595746   kbcos=  0.286105
   l= 1   rc=  1.920920   el= -0.265236   Ekb= -2.350715   kbcos= -0.315747
   l= 2   rc=  2.044840   el=  0.002055   Ekb= -0.690767   kbcos= -0.013822
   l= 3   rc=  2.149707   el=  0.003188   Ekb= -0.315358   kbcos= -0.002055

KBgen: Total number of  Kleinman-Bylander projectors:   16
atom: -------------------------------------------------------------------------

atom: SANKEY-TYPE ORBITALS:
atom: Selected multiple-zeta basis: split

SPLIT: Orbitals with angular momentum L= 0

SPLIT: Basis orbitals for state 2s

SPLIT: PAO cut-off radius determined from an
SPLIT: energy shift=  0.003675 Ry

   izeta = 1
                 lambda =    1.000000
                     rc =    5.992324
                 energy =   -0.690528
                kinetic =    0.558121
    potential(screened) =   -1.248649
       potential(ionic) =   -3.246844

   izeta = 2
                 rmatch =    4.275693
              splitnorm =    0.150000
                 energy =   -0.596762
                kinetic =    0.870329
    potential(screened) =   -1.467091
       potential(ionic) =   -3.591550

[...]

SPLIT: Basis orbitals for state 2p

[...]

POLgen: Perturbative polarization orbital with L=  2

POLgen: Polarization orbital for state 2p

   izeta = 1
                     rc =    7.504449
                 energy =    0.624150
                kinetic =    1.361189
    potential(screened) =   -0.737039
       potential(ionic) =   -2.313842
atom: Total number of Sankey-type orbitals: 13

atm_pop: Valence configuration (for local Pseudopot. screening):
 2s( 2.00)
 2p( 1.00)
Vna: chval, zval:    3.00000   3.00000

Vna:  Cut-off radius for the neutral-atom potential:   7.504449
comcore: Pseudo-core radius Rcore=  2.122997

atom: _________________________________________________________________________

<basis_specs>
N                    Z=   7    Mass=  14.010        Charge= 0.17977+309
Lmxo=1 Lmxkb= 3    BasisType=split      Semic=F
L=0  Nsemic=0  Cnfigmx=2
          n=1  nzeta=2  polorb=0
            splnorm:   0.15000
               vcte:    0.0000
               rinn:    0.0000
               qcoe:    0.0000
               qyuk:    0.0000
               qwid:   0.10000E-01
                rcs:    0.0000      0.0000
            lambdas:    1.0000      1.0000
L=1  Nsemic=0  Cnfigmx=2
          n=1  nzeta=2  polorb=1
            splnorm:   0.15000
               vcte:    0.0000
               rinn:    0.0000
               qcoe:    0.0000
               qyuk:    0.0000
               qwid:   0.10000E-01
                rcs:    0.0000      0.0000
            lambdas:    1.0000      1.0000
L=0  Nkbl=1  erefs: 0.17977+309
L=1  Nkbl=1  erefs: 0.17977+309
L=2  Nkbl=1  erefs: 0.17977+309
L=3  Nkbl=1  erefs: 0.17977+309
</basis_specs>

atom: Called for N                     (Z =   7)

read_vps: Pseudopotential generation method:
read_vps: ATM3      Troullier-Martins
Total valence charge:    5.00000

read_vps: Pseudopotential includes a core correction:
read_vps: Pseudo-core for xc-correction

xc_check: Exchange-correlation functional:
xc_check: GGA Perdew, Burke & Ernzerhof 1996
V l=0 = -2*Zval/r beyond r=  1.4606
V l=1 = -2*Zval/r beyond r=  1.4606
V l=2 = -2*Zval/r beyond r=  1.4606
V l=3 = -2*Zval/r beyond r=  1.4606
All V_l potentials equal beyond r=  1.4606
This should be close to max(r_c) in ps generation
All pots = -2*Zval/r beyond r=  1.4606

VLOCAL1: 99.0% of the norm of Vloc inside     20.347 Ry
VLOCAL1: 99.9% of the norm of Vloc inside     46.372 Ry
atom: Maximum radius for 4*pi*r*r*local-pseudopot. charge    1.76189
atom: Maximum radius for r*vlocal+2*Zval:    1.53550
GHOST: No ghost state for L =  0
GHOST: No ghost state for L =  1
GHOST: No ghost state for L =  2
GHOST: No ghost state for L =  3

KBgen: Kleinman-Bylander projectors:
   l= 0   rc=  1.634559   el= -1.363963   Ekb=  5.296955   kbcos=  0.335621
   l= 1   rc=  1.614250   el= -0.521451   Ekb= -5.259161   kbcos= -0.433408
   l= 2   rc=  1.718383   el=  0.001991   Ekb= -1.271464   kbcos= -0.007566
   l= 3   rc=  1.761893   el=  0.003093   Ekb= -0.494769   kbcos= -0.001015

KBgen: Total number of  Kleinman-Bylander projectors:   16
atom: -------------------------------------------------------------------------

atom: SANKEY-TYPE ORBITALS:
atom: Selected multiple-zeta basis: split

[...]

[...]
    nrows_g=208 nrows=40 sparsity=2.6745 nnzs=115711, refcount: 7>
  <dData1D:(new from dSpData1D) n=115711, refcount: 1>
refcount: 1>
new_DM -- step:     4
Re-using DM from previous geometries...
Number of DMs in history: 1
 DM extrapolation coefficients:
1   1.00000
New DM after history re-use:
<dSpData2D:SpM extrapolated using coords
  <sparsity:sparsity for geom step 3
    nrows_g=208 nrows=40 sparsity=2.6745 nnzs=115711, refcount: 8>
  <dData2D:(temp array for extrapolation) n=115711 m=1, refcount: 1>
refcount: 1>
Note: For starting DM, Qtot, Tr[D*S] =         64.00000000         64.07102577
No. of atoms with KB's overlaping orbs in proc 0. Max # of overlaps:     112     588
New grid distribution:   1
           1       1:   20    1:   10    1:    7
           2       1:   20    1:   10    8:   14
           3       1:   20    1:   10   15:   21
           4       1:   20    1:   10   22:   27
           5       1:   20   11:   20    1:    7
           6       1:   20   11:   20    8:   14
           7       1:   20   11:   20   15:   21
           8       1:   20   11:   20   22:   27

[...]

outcell: Cell vector modules (Ang)   :    5.001698    5.001699    6.217544
outcell: Cell angles (23,13,12) (deg):     89.9999     90.0000    120.0306
outcell: Cell volume (Ang**3)        :    134.6637
<dSpData1D:S at geom step 11
  <sparsity:sparsity for geom step 11
    nrows_g=208 nrows=40 sparsity=2.6858 nnzs=116197, refcount: 7>
  <dData1D:(new from dSpData1D) n=116197, refcount: 1>
refcount: 1>
new_DM -- step:    12
Re-using DM from previous geometries...
Number of DMs in history: 1
 DM extrapolation coefficients:
1   1.00000
New DM after history re-use:
<dSpData2D:SpM extrapolated using coords
  <sparsity:sparsity for geom step 11
    nrows_g=208 nrows=40 sparsity=2.6858 nnzs=116197, refcount: 8>
  <dData2D:(temp array for extrapolation) n=116197 m=1, refcount: 1>
refcount: 1>
Note: For starting DM, Qtot, Tr[D*S] =         64.00000000         64.06595071
No. of atoms with KB's overlaping orbs in proc 0. Max # of overlaps:     112     589
New grid distribution:   1
           1       1:   20    1:   10    1:    7
           2       1:   20    1:   10    8:   14
           3       1:   20    1:   10   15:   21
           4       1:   20    1:   10   22:   27
           5       1:   20   11:   20    1:    7
           6       1:   20   11:   20    8:   14
           7       1:   20   11:   20   15:   21
           8       1:   20   11:   20   22:   27

[...]

cgvc: Finished line minimization    1.  Mean atomic displacement =    0.0068

[...]

cgvc: Finished line minimization    7.  Mean atomic displacement =    0.0018

[...]

                        Begin CG opt. move =     52
 Kpoints in:          224 . Kpoints trimmed:          224

siesta: k-grid: Number of k-points =   224
siesta: k-grid: Cutoff (effective) =    20.010 Ang
siesta: k-grid: Supercell and displacements
siesta: k-grid:    8   8   0      0.500
siesta: k-grid:    0   8   0      0.500
siesta: k-grid:    0   0   7      0.000

superc: Internal auxiliary supercell:     5 x     5 x     3  =      75
superc: Number of atoms, orbitals, and projectors:   1200  15600  19200

[...]

outcell: Cell vector modules (Ang)   :    5.007894    5.007881    6.219277
outcell: Cell angles (23,13,12) (deg):     90.0009     89.9993    120.0714
outcell: Cell volume (Ang**3)        :    134.9791
<dSpData1D:S at geom step 52
  <sparsity:sparsity for geom step 52
    nrows_g=208 nrows=40 sparsity=2.8521 nnzs=123393, refcount: 7>
  <dData1D:(new from dSpData1D) n=123393, refcount: 1>
refcount: 1>
new_DM -- step:    53
Re-using DM from previous geometries...
Number of DMs in history: 1
 DM extrapolation coefficients:
1   1.00000
New DM after history re-use:
<dSpData2D:SpM extrapolated using coords
  <sparsity:sparsity for geom step 52
    nrows_g=208 nrows=40 sparsity=2.8521 nnzs=123393, refcount: 8>
  <dData2D:(temp array for extrapolation) n=123393 m=1, refcount: 1>
refcount: 1>
No. of atoms with KB's overlaping orbs in proc 0. Max # of overlaps:     114     637
New grid distribution:   1
           1       1:   20    1:   10    1:    7
           2       1:   20    1:   10    8:   14
           3       1:   20    1:   10   15:   21
           4       1:   20    1:   10   22:   27
           5       1:   20   11:   20    1:    7
           6       1:   20   11:   20    8:   14
           7       1:   20   11:   20   15:   21
           8       1:   20   11:   20   22:   27

InitMesh: MESH =    40 x    40 x    54 =       86400
InitMesh: (bp) =    20 x    20 x    27 =       10800
InitMesh: Mesh cutoff (required, used) =   200.000   208.358 Ry
ExtMesh (bp) on 0 =    96 x    86 x    79 =      652224
New grid distribution:   2
           1       1:   10   11:   20   14:   27
           2      11:   20    1:   10    1:   13
           3      11:   20    1:   10   14:   27
           4      11:   20   11:   20    1:   13
           5       1:   10    1:   10   14:   27
           6       1:   10    1:   10    1:   13
           7      11:   20   11:   20   14:   27
           8       1:   10   11:   20    1:   13
New grid distribution:   3
           1      11:   20   11:   20    1:   14
           2       1:   10    1:   10    1:   14
           3      11:   20   11:   20   15:   27
           4       1:   10    1:   10   15:   27
           5       1:   10   11:   20    1:   14
           6      11:   20    1:   10    1:   14
           7       1:   10   11:   20   15:   27
           8      11:   20    1:   10   15:   27
Setting up quadratic distribution...
ExtMesh (bp) on 0 =    86 x    86 x    86 =      636056
PhiOnMesh: Number of (b)points on node 0 =                 1400
PhiOnMesh: nlist on node 0 =               308031

        iscf     Eharris(eV)        E_KS(eV)     FreeEng(eV)     dDmax    Ef(eV) dHmax(eV)
   scf:    1    -3094.182811    -3094.173421    -3094.173421  0.001467 -5.614228  0.001186
   scf:    2    -3094.173420    -3094.173421    -3094.173421  0.000121 -5.613933  0.001682
   scf:    3    -3094.173422    -3094.173422    -3094.173422  0.000056 -5.614073  0.000110
   scf:    4    -3094.173422    -3094.173422    -3094.173422  0.000012 -5.614048  0.000032
   scf:    5    -3094.173422    -3094.173422    -3094.173422  0.000003 -5.614044  0.000007

SCF Convergence by DM+H criterion
max |DM_out - DM_in|         :     0.0000032416
max |H_out - H_in|      (eV) :     0.0000073641
SCF cycle converged after 5 iterations

Using DM_out to compute the final energy and forces
No. of atoms with KB's overlaping orbs in proc 0. Max # of overlaps:     114     637

siesta: E_KS(eV) =            -3094.1734

siesta: Atomic forces (eV/Ang):
   Tot    0.001199   -0.000318   -0.013905
   Max    0.006096
   Res    0.003949    sqrt( Sum f_i^2 / 3N )
   Max    0.006096    constrained

Stress-tensor-Voigt (kbar):      -50.24      -49.64      -49.88        0.49        0.01       -0.02
(Free)E + p*V (eV/cell)    -3089.9678
Target enthalpy (eV/cell)    -3089.9611

siesta: Stress tensor (static) (eV/Ang**3):
        -0.031360    0.000305   -0.000012
         0.000305   -0.030983    0.000007
        -0.000012    0.000007   -0.031131

siesta: Pressure (static):         49.92102650  kBar

siesta: Stress tensor (total) (eV/Ang**3):
        -0.031360    0.000305   -0.000012
         0.000305   -0.030983    0.000007
        -0.000012    0.000007   -0.031131

siesta: Pressure (total):         49.92102650  kBar

outcoor: Relaxed atomic coordinates (Ang):
   -0.00113795    1.44474633    1.55477727   1       1  B
    1.25189388    0.72131100    4.66450415   1       2  B
   -0.00012974    1.44415122    4.66484909   2       3  N
    1.25089718    0.72188971    1.55518079   2       4  N
    2.50280798    1.44318927    1.55479640   1       5  B
    3.75581379    0.71974254    4.66451188   1       6  B
    2.50379015    1.44261386    4.66484659   2       7  N
    3.75482427    0.72033359    1.55519851   2       8  N
   -1.25444781    3.61243920    1.55475452   1       9  B
   -0.00141821    2.88898360    4.66448212   1      10  B
   -1.25346161    3.61185375    4.66480723   2      11  N
   -0.00241845    2.88956992    1.55514723   2      12  N
    1.24947925    3.61087514    1.55477118   1      13  B
    2.50250167    2.88744306    4.66448944   1      14  B
    1.25048428    3.61028906    4.66485135   2      15  N
    2.50151632    2.88801890    1.55517811   2      16  N

outcell: Unit cell vectors (Ang):
        5.007893   -0.003117    0.000029
       -2.506646    4.335389   -0.000038
        0.000036   -0.000034    6.219277

outcell: Cell vector modules (Ang)   :    5.007894    5.007881    6.219277
outcell: Cell angles (23,13,12) (deg):     90.0009     89.9993    120.0714
outcell: Cell volume (Ang**3)        :    134.9791

coxmol: Writing XMOL coordinates into file nzeta.xyz

siesta: Eigenvalues (eV):
  ik is    eps
   1  1 -24.99 -24.90 -24.18 -24.09 -23.02 -22.96 -22.53 -22.49 -16.12 -16.09
        -15.63 -15.61 -14.27 -14.24 -14.13 -14.10 -13.50 -13.47 -12.65 -12.33
        -12.14 -11.85 -11.55 -11.53 -11.41 -10.87 -10.76 -10.74  -9.77  -9.34
         -9.02  -8.68  -2.98  -2.74  -2.21  -1.96  -0.37  -0.12   0.53   1.13
          2.10   2.41   2.86   2.96   3.89   3.98   4.35   4.40   4.53   4.64
          4.68   5.24   5.33   5.39   5.60   5.69   6.71   6.73   7.98   8.21
          8.59   8.81   9.37   9.45   9.49   9.62  10.59  11.01  11.39  11.58
         11.64  11.69  13.65  13.80  14.10  14.21  15.17  15.40  16.49  16.94
         17.15  17.66  17.89  18.26  18.99  19.75  20.13  20.40  20.68  20.89
         20.97  21.60  22.05  22.37  22.91  23.23  27.08  27.11  27.12  28.13
         28.15  29.30  29.38  29.95  30.14  30.37  30.48  30.74  31.08  31.77
         32.28  32.55  32.80  34.19  34.51  34.69  35.41  36.09  36.52  37.26
         40.07  40.15  40.70  41.19  41.61  41.88  43.27  44.44  44.57  46.50
         46.53  47.08  47.64  47.71  47.72  47.91  48.42  50.09  50.10  50.44
         51.05  51.61  51.69  52.84  52.92  53.69  54.02  54.49  54.80  55.53
         58.28  58.70  58.79  60.17  60.43  60.79  61.03  61.11  61.20  63.37
         65.82  66.44  67.46  68.16  69.43  70.24  70.47  70.58  71.15  71.67
         72.52  73.51  73.97  75.55  75.65  76.49  76.53  78.11  78.93  79.23
         79.48  81.23  82.47  83.70  91.87  93.42  93.69  97.21  99.32 101.86
        103.75 105.31 105.63 105.96 106.88 107.20 107.46 109.57 110.56 115.03
        115.71 116.38 117.32 118.56 119.50 121.11 124.43 126.24
   2  1 -25.39 -25.29 -23.55 -23.48 -22.94 -22.89 -22.53 -22.50 -16.57 -16.54
        -16.16 -16.13 -15.51 -15.48 -13.46 -13.43 -13.11 -12.94 -12.91 -12.51
        -11.96 -11.93 -10.99 -10.96 -10.54 -10.21 -10.19 -10.05  -9.65  -9.23
         -9.01  -8.69  -3.25  -2.95  -2.62  -2.30  -1.68  -1.37   0.35   1.28
          2.08   2.25   3.10   3.25   3.35   3.43   3.71   3.80   4.21   4.60
          4.98   5.22   5.25   5.47   5.57   5.76   5.81   5.88   8.74   8.87
          8.97   9.02   9.77   9.88  10.32  10.92  11.75  11.96  12.27  12.35
         12.35  12.40  13.69  13.69  13.98  13.99  14.04  14.29  16.72  16.99
         17.13  17.45  18.03  18.75  19.72  20.08  20.63  20.74  21.19  21.24
         21.33  21.54  22.26  22.60  23.03  23.34  26.41  26.47  27.35  27.39
         27.60  28.24  28.26  28.54  29.00  29.58  30.32  30.86  31.43  31.51
         32.22  32.88  33.06  34.36  34.55  35.40  35.75  35.90  37.16  37.20
         38.10  38.36  38.70  39.14  39.57  40.51  42.60  43.39  44.39  44.67
         44.92  46.00  46.48  46.51  46.80  47.85  48.20  49.12  50.82  52.15
         52.71  52.89  53.56  53.92  54.24  54.95  55.27  55.67  56.02  56.91
         57.51  59.16  59.16  61.36  61.99  62.43  64.08  64.61  65.30  66.35
         67.09  67.35  68.44  69.17  69.41  69.91  70.30  70.34  70.44  71.30
         72.12  72.68  73.00  73.72  76.21  76.75  77.81  78.15  78.53  79.11
         80.06  82.43  83.17  84.30  90.56  92.23  93.57  97.20  98.28  99.38
        100.30 101.92 104.22 106.15 107.38 109.34 109.81 110.99 112.66 118.13
        120.75 120.83 121.83 123.35 124.46 125.23 127.02 127.39
   3  1 -25.65 -25.55 -22.98 -22.93 -22.82 -22.78 -22.56 -22.54 -16.90 -16.87
        -16.64 -16.61 -16.49 -16.46 -13.46 -12.84 -12.80 -12.77 -12.46 -12.44
        -12.23 -12.21 -10.05 -10.04  -9.77  -9.75  -9.69  -9.45  -9.28  -9.07
         -9.04  -8.73  -3.49  -3.13  -3.10  -2.88  -2.73  -2.51   0.08   1.17
          2.09   2.16   2.29   2.34   2.68   2.71   3.46   3.52   4.06   4.11
          4.80   4.94   5.66   5.81   6.06   6.21   6.30   6.30   8.44   8.74
          9.24   9.68  10.00  10.44  10.71  10.96  13.11  13.16  13.22  13.22
         13.27  13.35  13.91  13.97  14.14  14.15  14.16  14.28  16.97  17.06
         17.19  17.40  17.55  18.12  20.76  20.92  21.01  21.04  21.09  21.19
         21.22  21.68  22.36  22.58  23.83  24.47  25.77  25.82  25.93  26.12
         26.14  26.86  26.96  27.04  29.32  29.70  29.89  30.55  31.11  31.17
         31.50  31.84  32.39  33.10  33.13  34.32  35.28  36.29  37.14  37.37
         37.80  37.95  38.33  39.24  39.62  39.90  41.37  42.05  42.72  43.04
         43.53  43.85  44.06  44.65  44.73  45.66  47.77  49.07  53.04  53.87
         53.93  54.11  54.79  54.96  55.10  56.61  56.61  57.42  57.61  57.93
         58.91  59.42  60.12  60.55  65.14  66.10  66.83  67.73  68.71  68.74
         68.78  69.79  69.81  70.74  71.12  71.18  71.99  72.01  72.09  72.22
         72.92  72.98  73.11  73.13  75.59  75.89  77.11  77.55  77.85  80.02
[...]
          8.15   8.48   8.49   8.51   9.85  10.08  10.24  10.58  11.16  11.39
         11.47  11.52  13.68  13.86  14.13  14.25  16.00  16.31  16.41  16.91
         16.92  17.18  17.29  17.71  19.53  19.98  20.17  20.28  20.29  20.47
         20.81  20.91  22.47  22.77  22.77  23.07  26.71  27.37  27.39  28.22
         28.23  29.28  29.73  29.86  30.39  30.59  30.71  30.73  31.08  31.87
         32.27  32.39  33.11  33.80  34.78  34.82  35.44  35.60  36.15  37.06
         40.78  41.14  41.19  41.99  42.31  42.33  42.84  43.82  45.50  46.55
         46.62  47.31  47.47  47.60  47.68  47.90  48.76  49.68  49.71  51.01
         51.04  51.64  51.64  52.62  52.70  53.40  53.72  54.48  55.26  56.09
         57.78  57.99  58.39  58.58  60.02  60.30  60.32  61.15  61.94  63.02
         65.76  66.36  67.15  67.98  69.31  70.33  70.47  71.61  71.74  72.26
         73.76  73.93  74.52  75.14  76.26  76.32  76.71  77.78  77.94  78.85
         79.18  79.41  81.92  82.67  92.29  92.86  94.76  95.94  98.66 101.15
        104.85 105.41 105.71 106.16 108.32 108.72 109.13 109.79 110.91 112.24
        113.08 113.83 115.13 116.25 118.08 120.46 124.10 125.95
siesta: Fermi energy =      -5.614044 eV

siesta: Program's energy decomposition (eV):
siesta: Ebs     =      -974.728609
siesta: Eions   =      4351.079080
siesta: Ena     =       791.078286
siesta: Ekin    =      1986.141509
siesta: Enl     =      -329.365039
siesta: Eso     =         0.000000
siesta: Eldau   =         0.000000
siesta: DEna    =       -83.101426
siesta: DUscf   =         9.214798
siesta: DUext   =         0.000000
siesta: Exc     =     -1117.062470
siesta: eta*DQ  =         0.000000
siesta: Emadel  =         0.000000
siesta: Emeta   =         0.000000
siesta: Emolmec =         0.000000
siesta: Ekinion =         0.000000
siesta: Eharris =     -3094.173422
siesta: Etot    =     -3094.173422
siesta: FreeEng =     -3094.173422

siesta: Final energy (eV):
siesta:  Band Struct. =    -974.728609
siesta:       Kinetic =    1986.141509
siesta:       Hartree =     785.802654
siesta:       Eldau   =       0.000000
siesta:       Eso     =       0.000000
siesta:    Ext. field =       0.000000
siesta:   Exch.-corr. =   -1117.062470
siesta:  Ion-electron =   -3465.836061
siesta:       Ion-ion =   -1283.219054
siesta:       Ekinion =       0.000000
siesta:         Total =   -3094.173422
siesta:         Fermi =      -5.614044

siesta: Stress tensor (static) (eV/Ang**3):
siesta:    -0.031360    0.000305   -0.000012
siesta:     0.000305   -0.030983    0.000007
siesta:    -0.000012    0.000007   -0.031131

siesta: Constrained stress tensor (static) (eV/Ang**3):
siesta:    -0.031360    0.000305   -0.000012
siesta:     0.000305   -0.030983    0.000007
siesta:    -0.000012    0.000007   -0.031131

siesta: Cell volume =        134.979138 Ang**3

siesta: Pressure (static):
siesta:                Solid            Molecule  Units
siesta:           0.00033935          0.00034045  Ry/Bohr**3
siesta:           0.03115792          0.03125929  eV/Ang**3
siesta:          49.92102650         50.08344398  kBar
(Free)E+ p_basis*V_orbitals  =       -3083.538476
(Free)Eharris+ p_basis*V_orbitals  =       -3083.538476
>> End of run:  24-NOV-2020  13:13:36
Job completed