     Program PWSCF v.6.3 starts on  2Dec2020 at  0:47:20

     R & G space division:  proc/nbgrp/npool/nimage =      12
     Waiting for input...
     Reading input from standard input
     Message from routine read_cards :
     DEPRECATED: no units specified in CELL_PARAMETERS card

     Current dimensions of program PWSCF are:
     Max number of different atomic species (ntypx) = 10
     Max number of k-points (npk) =  40000
     Max angular momentum in pseudopotentials (lmaxx) =  3

     IMPORTANT: XC functional enforced from input :
     Exchange-correlation      = PBE ( 1  4  3  4 0 0)
     Any further DFT definition will be discarded
     Please, verify this is what you really want

               file N.pbe-n-kjpaw_psl.1.0.0.UPF: wavefunction(s)  2S renormalized

     Found symmetry operation: I + (  0.5000  0.0000  0.0000)
     This is a supercell, fractional translations are disabled

     bravais-lattice index     =            0
     lattice parameter (alat)  =       9.6117  a.u.
     unit-cell volume          =     635.1459 (a.u.)^3
     number of atoms/cell      =           16
     number of atomic types    =            2
     number of electrons       =        64.00
     number of Kohn-Sham states=          120
     kinetic-energy cutoff     =     100.0000  Ry
     charge density cutoff     =     400.0000  Ry
     convergence threshold     =      1.0E-07
     mixing beta               =       0.1000
     number of iterations used =            8  plain     mixing
     Exchange-correlation      = PBE ( 1  4  3  4 0 0)
     nstep                     =           50

     celldm(1)=   9.611714  celldm(2)=   0.000000  celldm(3)=   0.000000
     celldm(4)=   0.000000  celldm(5)=   0.000000  celldm(6)=   0.000000

     crystal axes: (cart. coord. in units of alat)
               a(1) = (   1.000000   0.000000   0.000000 )
               a(2) = (  -0.500000   0.866025   0.000000 )
               a(3) = (   0.000000   0.000000   0.825925 )

     reciprocal axes: (cart. coord. in units 2 pi/alat)
               b(1) = (  1.000000  0.577350  0.000000 )
               b(2) = (  0.000000  1.154701  0.000000 )
               b(3) = (  0.000000  0.000000  1.210764 )

     PseudoPot. # 1 for B  read from file:
     /home/hanghu/Simulaiton/QE/pseudo/B.pbe-n-kjpaw_psl.1.0.0.UPF
     MD5 check sum: 8c825a5969375aca5c2c6ad5945b3059
     Pseudo is Projector augmented-wave + core cor, Zval =  3.0
     Generated using "atomic" code by A. Dal Corso v.6.3
     Shape of augmentation charge: PSQ
     Using radial grid of 1059 points,  4 beta functions with:
                l(1) =   0
                l(2) =   0
                l(3) =   1
                l(4) =   1
     Q(r) pseudized with 0 coefficients

     PseudoPot. # 2 for N  read from file:
     /home/hanghu/Simulaiton/QE/pseudo/N.pbe-n-kjpaw_psl.1.0.0.UPF
     MD5 check sum: 14c48229446f9f2d411169a3abcbc3fa
     Pseudo is Projector augmented-wave + core cor, Zval =  5.0
     Generated using "atomic" code by A. Dal Corso v.6.3
     Shape of augmentation charge: PSQ
     Using radial grid of 1085 points,  4 beta functions with:
                l(1) =   0
                l(2) =   0
                l(3) =   1
                l(4) =   1
     Q(r) pseudized with 0 coefficients

     atomic species   valence    mass     pseudopotential
        B              3.00    10.81000     B ( 1.00)
        N              5.00    14.00700     N ( 1.00)

      2 Sym. Ops. (no inversion) found

   Cartesian axes

     site n.     atom                  positions (alat units)
         1           B   tau(   1) = (   0.0000050   0.2886722   0.1494263  )
         2           N   tau(   2) = (   0.0000050   0.2886722   0.6663724  )
         3           B   tau(   3) = (   0.2499950   0.1443405   0.5623885  )
         4           N   tau(   4) = (   0.2499950   0.1443405   0.2534102  )
         5           B   tau(   5) = (   0.5000050   0.2886722   0.1494263  )
         6           N   tau(   6) = (   0.5000050   0.2886722   0.6663724  )
         7           B   tau(   7) = (   0.7499950   0.1443405   0.5623885  )
         8           N   tau(   8) = (   0.7499950   0.1443405   0.2534102  )
         9           B   tau(   9) = (  -0.2499950   0.7216849   0.1494263  )
        10           N   tau(  10) = (  -0.2499950   0.7216849   0.6663724  )
        11           B   tau(  11) = (  -0.0000050   0.5773532   0.5623885  )
        12           N   tau(  12) = (  -0.0000050   0.5773532   0.2534102  )
        13           B   tau(  13) = (   0.2500050   0.7216849   0.1494263  )
        14           N   tau(  14) = (   0.2500050   0.7216849   0.6663724  )
        15           B   tau(  15) = (   0.4999950   0.5773532   0.5623885  )
        16           N   tau(  16) = (   0.4999950   0.5773532   0.2534102  )

     number of k points=    34
                       cart. coord. in units 2pi/alat
        k(    1) = (   0.0000000   0.0000000   0.0000000), wk =   0.0185185
        k(    2) = (   0.0000000   0.0000000   0.4035881), wk =   0.0370370
        k(    3) = (   0.0000000   0.1924501   0.0000000), wk =   0.0740741
        k(    4) = (   0.0000000   0.1924501   0.4035881), wk =   0.0740741
        k(    5) = (   0.0000000   0.3849002   0.0000000), wk =   0.0740741
        k(    6) = (   0.0000000   0.3849002   0.4035881), wk =   0.0740741
        k(    7) = (   0.0000000  -0.5773503   0.0000000), wk =   0.0370370
        k(    8) = (   0.0000000  -0.5773503   0.4035881), wk =   0.0740741
        k(    9) = (   0.1666667   0.2886751   0.0000000), wk =   0.0370370
        k(   10) = (   0.1666667   0.2886751   0.4035881), wk =   0.0740741
        k(   11) = (   0.1666667   0.4811252   0.0000000), wk =   0.0740741
        k(   12) = (   0.1666667   0.4811252   0.4035881), wk =   0.0740741
        k(   13) = (   0.3333333   0.5773503   0.0000000), wk =   0.0370370
        k(   14) = (   0.3333333   0.5773503   0.4035881), wk =   0.0740741
        k(   15) = (  -0.1666667   0.0962250   0.0000000), wk =   0.0370370
        k(   16) = (   0.0000000   0.1924501  -0.4035881), wk =   0.0740741
        k(   17) = (  -0.1666667   0.0962250   0.4035881), wk =   0.0370370
        k(   18) = (   0.1666667  -0.0962250   0.4035881), wk =   0.0370370
        k(   19) = (  -0.3333333   0.1924501   0.0000000), wk =   0.0370370
        k(   20) = (   0.0000000   0.3849002  -0.4035881), wk =   0.0740741
        k(   21) = (  -0.3333333   0.1924501   0.4035881), wk =   0.0370370
        k(   22) = (   0.3333333  -0.1924501   0.4035881), wk =   0.0370370
        k(   23) = (   0.5000000  -0.2886751   0.0000000), wk =   0.0185185
        k(   24) = (   0.5000000  -0.2886751   0.4035881), wk =   0.0370370
        k(   25) = (  -0.1666667   0.2886751   0.0000000), wk =   0.0740741
        k(   26) = (  -0.1666667   0.2886751  -0.4035881), wk =   0.0740741
        k(   27) = (   0.1666667  -0.2886751  -0.4035881), wk =   0.0740741
        k(   28) = (  -0.1666667   0.4811252   0.0000000), wk =   0.0740741
        k(   29) = (  -0.3333333   0.3849002   0.0000000), wk =   0.0740741
        k(   30) = (  -0.1666667   0.4811252  -0.4035881), wk =   0.0740741
        k(   31) = (   0.1666667  -0.4811252  -0.4035881), wk =   0.0740741
        k(   32) = (  -0.3333333   0.3849002   0.4035881), wk =   0.0740741
        k(   33) = (   0.3333333  -0.3849002   0.4035881), wk =   0.0740741
        k(   34) = (  -0.3333333  -0.3849002  -0.4035881), wk =   0.0740741

     Check: negative/imaginary core charge=   -0.000003    0.000000

     Initial potential from superposition of free atoms

     starting charge   63.99768, renormalised to   64.00000
     Starting wfcs are   64 randomized atomic wfcs +   56 random wfcs
     Checking if some PAW data can be deallocated...

     Self-consistent Calculation

     iteration #  1     ecut=   100.00 Ry     beta= 0.10
     Davidson diagonalization with overlap
     ethr =  1.00E-02,  avg # of iterations =  5.3

     total energy              =    -319.13451007 Ry
     Harris-Foulkes estimate   =    -319.36268192 Ry
     estimated scf accuracy    <       1.76839344 Ry

[...]

     End of self-consistent calculation

          k = 0.0000 0.0000 0.0000 ( 10789 PWs)   bands (ev):

    -9.0848  -4.9723  -4.9723  -4.9721  -4.8958  -3.6838  -3.6834  -3.6834
     0.4076   1.8573   1.8573   1.8575   3.5650   3.5655   3.5655   4.4280
     4.4280   4.4283   6.3632   6.3632   6.3635   6.9275   6.9281   6.9282
     9.2400   9.2410   9.2742   9.2742   9.2746  11.0984  11.3950  11.3958
    18.1448  18.1448  18.1449  19.4021  19.4021  19.4029  19.7928  19.7936
    20.1053  20.9745  22.0252  22.0254  22.0254  22.2102  22.9446  22.9446
    22.9449  23.3592  23.3608  24.4326  24.4326  24.4331  26.0294  26.0300
    26.0300  27.6775  27.9255  27.9255  27.9256  29.2600  29.2606  29.2606
    31.3302  31.3302  31.3307  33.0863  33.0871  33.1549  33.4199  33.4210
    33.4210  35.5660  35.5660  35.5660  35.6838  36.2869  36.2870  36.2874
    37.2834  37.8811  37.8818  38.2287  38.2292  38.2292  39.8844  39.9886
    39.9899  39.9899  43.9562  43.9562  43.9568  46.9127  46.9142  47.5591
    47.5591  47.5597  49.1798  49.2495  49.2496  49.2503  49.4260  49.4265
    49.4265  50.6266  50.6266  50.6268  52.4613  52.4613  52.4614  52.7666
    52.7673  53.6060  53.6064  54.9918  54.9926  54.9926  55.0375  56.2992

[...]

          k =-0.1667 0.0962 0.0000 ( 10729 PWs)   bands (ev):

[...]

     highest occupied, lowest unoccupied level (ev):    11.3958   16.5873

!    total energy              =    -318.81449715 Ry
     Harris-Foulkes estimate   =    -318.81449706 Ry
     estimated scf accuracy    <       0.00000007 Ry

     total all-electron energy =     -1275.119661 Ry

     The total energy is the sum of the following terms:

     one-electron contribution =      39.43671953 Ry
     hartree contribution      =      29.12091087 Ry
     xc contribution           =     -71.22647866 Ry
     ewald contribution        =    -210.74165740 Ry
     one-center paw contrib.   =    -105.40399149 Ry

     convergence has been achieved in  10 iterations

     Forces acting on atoms (cartesian axes, Ry/au):

     atom    1 type  1   force =    -0.00004131    0.00002328    0.00151606
     atom    2 type  2   force =    -0.00004204    0.00002361   -0.00151670
     atom    3 type  1   force =     0.00004077   -0.00002420    0.00151713
     atom    4 type  2   force =     0.00004150   -0.00002503   -0.00151682
     atom    5 type  1   force =    -0.00004015    0.00002318    0.00151632
     atom    6 type  2   force =    -0.00004036    0.00002330   -0.00151594
     atom    7 type  1   force =     0.00004066   -0.00002348    0.00151680
     atom    8 type  2   force =     0.00004098   -0.00002366   -0.00151702
     atom    9 type  1   force =    -0.00004091    0.00002362    0.00151575
     atom   10 type  2   force =    -0.00004090    0.00002361   -0.00151611
     atom   11 type  1   force =     0.00004027   -0.00002325    0.00151719
     atom   12 type  2   force =     0.00004001   -0.00002310   -0.00151632
     atom   13 type  1   force =    -0.00004081    0.00002414    0.00151606
[...]

     BFGS Geometry Optimization

     number of scf cycles    =   1
     number of bfgs steps    =   0

     enthalpy new            =    -318.5986154000 Ry

     new trust radius        =       0.0244872392 bohr
     new conv_thr            =       0.0000001000 Ry

     new unit-cell volume =    641.56884 a.u.^3 (    95.07069 Ang^3 )
     density =      3.46770 g/cm^3

CELL_PARAMETERS (bohr)
   9.636835948  -0.000043890  -0.000000005
  -4.818455984   8.345722799   0.000000005
  -0.000000004   0.000000003   7.977117372

ATOMIC_POSITIONS (crystal)
B        0.166667100   0.333332796   0.181110975
N        0.166667044   0.333332836   0.806628945
B        0.333332788   0.166667093   0.681111109
N        0.333332814   0.166666993   0.306628930
B        0.666667215   0.333332785   0.181111007
N        0.666667200   0.333332800   0.806629041
B        0.833332820   0.166667180   0.681111067
N        0.833332842   0.166667158   0.306628904
B        0.166667163   0.833332837   0.181110935
N        0.166667163   0.833332837   0.806629019
B        0.333332793   0.666667207   0.681111117
N        0.333332775   0.666667225   0.306628992
B        0.666667204   0.833332900   0.181110975
N        0.666667164   0.833332956   0.806628945
B        0.833332907   0.666667212   0.681111109
N        0.833333007   0.666667186   0.306628930

     Writing output data file pwscf.save/
     NEW-OLD atomic charge density approx. for the potential

     Check: negative/imaginary core charge=   -0.000003    0.000000
     extrapolated charge   64.64070, renormalised to   64.00000

[...]

     enthalpy old            =    -318.5986154000 Ry
     enthalpy new            =    -318.5986404996 Ry

     CASE: enthalpy_new < enthalpy_old

[...]

     Threshold (ethr) on eigenvalues was too large:
     Diagonalizing with lowered threshold

     Davidson diagonalization with overlap
     ethr =  3.56E-10,  avg # of iterations =  2.0

[...]

     Total force =     0.000071     Total SCF correction =     0.000001

[...]

     Total force =     0.000003     Total SCF correction =     0.000004
     SCF correction compared to forces is large: reduce conv_thr to get better values

[...]

     small trust_radius: resetting bfgs history

[...]

     number of scf cycles    =   6
     number of bfgs steps    =   5

     enthalpy old            =    -318.5988705111 Ry
     enthalpy new            =    -318.5988705116 Ry

     CASE: enthalpy_new < enthalpy_old

     Message from routine bfgs:
     history already reset at previous step: stopping
     small trust_radius: resetting bfgs history

     new trust radius        =       0.0000250675 bohr
     new conv_thr            =       0.0000000010 Ry

     new unit-cell volume =    638.33656 a.u.^3 (    94.59172 Ang^3 )
     density =      3.48526 g/cm^3

[...]

ATOMIC_POSITIONS (crystal)
B        0.166666659   0.333333341   0.181119755
N        0.166666668   0.333333330   0.806620242
B        0.333333340   0.166666658   0.681119758
N        0.333333331   0.166666669   0.306620245
B        0.666666660   0.333333340   0.181119759
N        0.666666670   0.333333330   0.806620244
B        0.833333340   0.166666660   0.681119753
N        0.833333331   0.166666669   0.306620242
B        0.166666659   0.833333341   0.181119758
N        0.166666670   0.833333330   0.806620246
B        0.333333340   0.666666660   0.681119756
N        0.333333330   0.666666670   0.306620243
B        0.666666659   0.833333341   0.181119755
N        0.666666670   0.833333332   0.806620242
B        0.833333342   0.666666660   0.681119758
N        0.833333331   0.666666669   0.306620245

     Writing output data file pwscf.save/
     NEW-OLD atomic charge density approx. for the potential

     Check: negative/imaginary core charge=   -0.000003    0.000000
     extrapolated charge   64.00088, renormalised to   64.00000

[...]

     Threshold (ethr) on eigenvalues was too large:
     Diagonalizing with lowered threshold

     Davidson diagonalization with overlap
     ethr =  9.27E-12,  avg # of iterations =  1.0

[...]

     bfgs converged in   7 scf cycles and   6 bfgs steps
     (criteria: energy <  1.0E-04 Ry, force <  1.0E-03Ry/Bohr, cell <  1.0E-03kbar)

     End of BFGS Geometry Optimization

     Final enthalpy =    -318.5988705170 Ry
Begin final coordinates
     new unit-cell volume =    638.33656 a.u.^3 (    94.59172 Ang^3 )
     density =      3.48526 g/cm^3

CELL_PARAMETERS (bohr)
   9.623810224  -0.000000537   0.000000000
  -4.811905577   8.334463866  -0.000000000
   0.000000000  -0.000000000   7.958386310

ATOMIC_POSITIONS (crystal)
B        0.166666659   0.333333341   0.181119755
N        0.166666668   0.333333330   0.806620242
B        0.333333340   0.166666658   0.681119758
N        0.333333331   0.166666669   0.306620245
B        0.666666660   0.333333340   0.181119759
N        0.666666670   0.333333330   0.806620244
B        0.833333340   0.166666660   0.681119753
N        0.833333331   0.166666669   0.306620242
B        0.166666659   0.833333341   0.181119758
N        0.166666670   0.833333330   0.806620246
B        0.333333340   0.666666660   0.681119756
N        0.333333330   0.666666670   0.306620243
B        0.666666659   0.833333341   0.181119755
N        0.666666670   0.833333332   0.806620242
B        0.833333342   0.666666660   0.681119758
N        0.833333331   0.666666669   0.306620245
End final coordinates

     Writing output data file pwscf.save/

     A final scf calculation at the relaxed structure.
     The G-vectors are recalculated for the final unit cell
     Results may differ from those at the preceding step.

     bravais-lattice index     =            0
     lattice parameter (alat)  =       9.6117  a.u.
     unit-cell volume          =     638.3366 (a.u.)^3
     number of atoms/cell      =           16
     number of atomic types    =            2
     number of electrons       =        64.00
     number of Kohn-Sham states=          120
     kinetic-energy cutoff     =     100.0000  Ry
     charge density cutoff     =     400.0000  Ry
     convergence threshold     =      1.0E-09
     mixing beta               =       0.1000
     number of iterations used =            8  plain     mixing
     Exchange-correlation      = PBE ( 1  4  3  4 0 0)

     celldm(1)=   9.611714  celldm(2)=   0.000000  celldm(3)=   0.000000
     celldm(4)=   0.000000  celldm(5)=   0.000000  celldm(6)=   0.000000

     crystal axes: (cart. coord. in units of alat)
               a(1) = (   1.001258  -0.000000   0.000000 )
               a(2) = (  -0.500629   0.867115  -0.000000 )
               a(3) = (   0.000000  -0.000000   0.827988 )

     reciprocal axes: (cart. coord. in units 2 pi/alat)
               b(1) = (  0.998743  0.576625 -0.000000 )
               b(2) = (  0.000000  1.153249  0.000000 )
               b(3) = ( -0.000000  0.000000  1.207747 )

     PseudoPot. # 1 for B  read from file:
     /home/hanghu/Simulaiton/QE/pseudo/B.pbe-n-kjpaw_psl.1.0.0.UPF
     MD5 check sum: 8c825a5969375aca5c2c6ad5945b3059
     Pseudo is Projector augmented-wave + core cor, Zval =  3.0
     Generated using "atomic" code by A. Dal Corso v.6.3
     Shape of augmentation charge: PSQ
     Using radial grid of 1059 points,  4 beta functions with:
                l(1) =   0
                l(2) =   0
                l(3) =   1
                l(4) =   1
     Q(r) pseudized with 0 coefficients

     PseudoPot. # 2 for N  read from file:
     /home/hanghu/Simulaiton/QE/pseudo/N.pbe-n-kjpaw_psl.1.0.0.UPF
     MD5 check sum: 14c48229446f9f2d411169a3abcbc3fa
     Pseudo is Projector augmented-wave + core cor, Zval =  5.0
     Generated using "atomic" code by A. Dal Corso v.6.3
     Shape of augmentation charge: PSQ
     Using radial grid of 1085 points,  4 beta functions with:
                l(1) =   0
                l(2) =   0
                l(3) =   1
                l(4) =   1
     Q(r) pseudized with 0 coefficients

     atomic species   valence    mass     pseudopotential
        B              3.00    10.81000     B ( 1.00)
        N              5.00    14.00700     N ( 1.00)

      2 Sym. Ops. (no inversion) found

   Cartesian axes

     site n.     atom                  positions (alat units)
         1           B   tau(   1) = (  -0.0000000   0.2890384   0.1499650  )
         2           N   tau(   2) = (  -0.0000000   0.2890384   0.6678721  )
         3           B   tau(   3) = (   0.2503146   0.1445192   0.5639592  )
         4           N   tau(   4) = (   0.2503146   0.1445192   0.2538780  )
         5           B   tau(   5) = (   0.5006292   0.2890384   0.1499650  )
         6           N   tau(   6) = (   0.5006292   0.2890384   0.6678721  )
         7           B   tau(   7) = (   0.7509439   0.1445192   0.5639592  )
         8           N   tau(   8) = (   0.7509439   0.1445192   0.2538780  )
         9           B   tau(   9) = (  -0.2503147   0.7225960   0.1499650  )
        10           N   tau(  10) = (  -0.2503147   0.7225960   0.6678721  )
        11           B   tau(  11) = (  -0.0000000   0.5780768   0.5639592  )
        12           N   tau(  12) = (  -0.0000000   0.5780768   0.2538780  )
        13           B   tau(  13) = (   0.2503146   0.7225960   0.1499650  )
        14           N   tau(  14) = (   0.2503146   0.7225960   0.6678721  )
        15           B   tau(  15) = (   0.5006292   0.5780768   0.5639592  )
        16           N   tau(  16) = (   0.5006292   0.5780768   0.2538780  )

     number of k points=    34
                       cart. coord. in units 2pi/alat
        k(    1) = (   0.0000000   0.0000000   0.0000000), wk =   0.0185185
        k(    2) = (  -0.0000000   0.0000000   0.4025822), wk =   0.0370370
        k(    3) = (   0.0000000   0.1922082   0.0000000), wk =   0.0740741
        k(    4) = (   0.0000000   0.1922082   0.4025822), wk =   0.0740741
        k(    5) = (   0.0000000   0.3844164   0.0000000), wk =   0.0740741
        k(    6) = (   0.0000000   0.3844164   0.4025822), wk =   0.0740741
        k(    7) = (  -0.0000000  -0.5766246  -0.0000000), wk =   0.0370370
        k(    8) = (  -0.0000000  -0.5766246   0.4025822), wk =   0.0740741
        k(    9) = (   0.1664572   0.2883123   0.0000000), wk =   0.0370370
        k(   10) = (   0.1664572   0.2883123   0.4025822), wk =   0.0740741
        k(   11) = (   0.1664572   0.4805205   0.0000000), wk =   0.0740741
        k(   12) = (   0.1664572   0.4805205   0.4025822), wk =   0.0740741
        k(   13) = (   0.3329144   0.5766247   0.0000000), wk =   0.0370370
        k(   14) = (   0.3329144   0.5766247   0.4025822), wk =   0.0740741
        k(   15) = (  -0.1664572   0.0961041   0.0000000), wk =   0.0370370
        k(   16) = (   0.0000000   0.1922082  -0.4025822), wk =   0.0740741
        k(   17) = (  -0.1664572   0.0961041   0.4025822), wk =   0.0370370
        k(   18) = (   0.1664572  -0.0961041   0.4025822), wk =   0.0370370
        k(   19) = (  -0.3329144   0.1922082   0.0000000), wk =   0.0370370
        k(   20) = (   0.0000000   0.3844164  -0.4025822), wk =   0.0740741
        k(   21) = (  -0.3329144   0.1922082   0.4025822), wk =   0.0370370
        k(   22) = (   0.3329144  -0.1922082   0.4025822), wk =   0.0370370
        k(   23) = (   0.4993715  -0.2883123  -0.0000000), wk =   0.0185185
        k(   24) = (   0.4993715  -0.2883123   0.4025822), wk =   0.0370370
        k(   25) = (  -0.1664572   0.2883123   0.0000000), wk =   0.0740741
        k(   26) = (  -0.1664572   0.2883123  -0.4025822), wk =   0.0740741
        k(   27) = (   0.1664572  -0.2883123  -0.4025822), wk =   0.0740741
        k(   28) = (  -0.1664572   0.4805205   0.0000000), wk =   0.0740741
        k(   29) = (  -0.3329143   0.3844164   0.0000000), wk =   0.0740741
        k(   30) = (  -0.1664572   0.4805205  -0.4025822), wk =   0.0740741
        k(   31) = (   0.1664572  -0.4805205  -0.4025822), wk =   0.0740741
        k(   32) = (  -0.3329143   0.3844164   0.4025822), wk =   0.0740741
        k(   33) = (   0.3329143  -0.3844164   0.4025822), wk =   0.0740741
        k(   34) = (  -0.3329144  -0.3844164  -0.4025822), wk =   0.0740741

     Check: negative/imaginary core charge=   -0.000003    0.000000

     Initial potential from superposition of free atoms

     starting charge   63.99768, renormalised to   64.00000
     Starting wfcs are   64 randomized atomic wfcs +   56 random wfcs
     Checking if some PAW data can be deallocated...

     Self-consistent Calculation

[...]

     total energy              =    -318.81584849 Ry
     Harris-Foulkes estimate   =    -318.81584849 Ry
     estimated scf accuracy    <       0.00000003 Ry

     iteration # 12     ecut=   100.00 Ry     beta= 0.10
     Davidson diagonalization with overlap
     ethr =  4.33E-11,  avg # of iterations =  1.0

     End of self-consistent calculation

[...]

          k = 0.3329-0.3844 0.4026 ( 10772 PWs)   bands (ev):

[...]

          k =-0.3329-0.3844-0.4026 ( 10772 PWs)   bands (ev):

    -7.4342  -6.6135  -5.8503  -5.6961  -4.9986  -4.4051  -4.1741  -3.6051
     2.1111   2.6930   2.9043   3.4066   3.7386   3.7747   4.0853   5.0384
     5.2201   5.6722   5.6959   6.1356   6.4560   6.8404   7.2369   7.2873
     7.3277   7.9676   8.1551   8.4540   8.6982   8.8355   8.8927   9.2979
    18.7868  19.1614  19.3587  19.4366  20.0122  20.2582  20.7087  20.9564
    21.5966  21.8171  21.8980  21.9800  22.1251  22.7468  23.2862  23.3108
    23.5886  23.5982  23.9658  24.2146  25.0989  25.1902  25.2358  25.4415
    25.6319  26.0367  26.1936  26.4220  27.0025  27.1083  27.2898  27.9595
    30.3173  30.5987  30.8240  31.0210  31.4904  31.8916  31.9677  32.2419
    35.0921  35.4139  35.5233  35.7092  35.7943  36.4017  36.6488  36.8090
    37.9806  38.1338  38.4035  38.6824  39.8189  40.2834  40.6407  40.8924
    41.4896  42.1202  42.8594  42.9818  44.0169  44.4647  44.4840  44.5209
    46.5878  47.8481  47.9352  48.8631  48.9922  49.8794  50.2281  50.7806
    50.8262  51.3324  51.4916  51.6639  52.5066  52.5476  52.6258  52.9168
    53.0530  53.3531  53.6467  53.8772  54.0068  55.0769  55.1781  55.7443

     highest occupied, lowest unoccupied level (ev):    11.3065   16.5285

!    total energy              =    -318.81584849 Ry
     Harris-Foulkes estimate   =    -318.81584849 Ry
     estimated scf accuracy    <          9.0E-10 Ry

     total all-electron energy =     -1275.121012 Ry

     The total energy is the sum of the following terms:

     one-electron contribution =      38.94272459 Ry
     hartree contribution      =      29.19584783 Ry
     xc contribution           =     -71.16248031 Ry
     ewald contribution        =    -210.38787397 Ry
     one-center paw contrib.   =    -105.40406663 Ry

     convergence has been achieved in  12 iterations

     Forces acting on atoms (cartesian axes, Ry/au):

     atom    1 type  1   force =    -0.00000004    0.00000011   -0.00000023
     atom    2 type  2   force =     0.00000071    0.00000014    0.00000007
     atom    3 type  1   force =    -0.00000013    0.00000038    0.00000008
     atom    4 type  2   force =     0.00000040    0.00000014    0.00000005
     atom    5 type  1   force =     0.00000014   -0.00000008   -0.00000019
     atom    6 type  2   force =    -0.00000065    0.00000038    0.00000038
     atom    7 type  1   force =     0.00000002   -0.00000001   -0.00000002
     atom    8 type  2   force =    -0.00000046    0.00000026   -0.00000035
     atom    9 type  1   force =     0.00000023   -0.00000013    0.00000008
     atom   10 type  2   force =    -0.00000017    0.00000010    0.00000026
     atom   11 type  1   force =     0.00000028   -0.00000016   -0.00000006
     atom   12 type  2   force =    -0.00000014    0.00000008   -0.00000006
     atom   13 type  1   force =    -0.00000011   -0.00000002   -0.00000023
     atom   14 type  2   force =     0.00000023   -0.00000069    0.00000007
     atom   15 type  1   force =    -0.00000040   -0.00000008    0.00000008
     atom   16 type  2   force =     0.00000008   -0.00000042    0.00000005

     Total force =     0.000002     Total SCF correction =     0.000024
     SCF correction compared to forces is large: reduce conv_thr to get better values

     Computing stress (Cartesian axis) and pressure

          total   stress  (Ry/bohr**3)                   (kbar)     P=   49.95
   0.00033956   0.00000000   0.00000000         49.95      0.00      0.00
   0.00000000   0.00033956  -0.00000000          0.00     49.95     -0.00
   0.00000000  -0.00000000   0.00033951          0.00     -0.00     49.94

     Writing output data file pwscf.save/

     General routines

     Parallel routines

   This run was terminated on:   1: 7:34   2Dec2020

   JOB DONE.