     Program PHONON v.6.3 starts on  2Dec2020 at  1:42: 8

     R & G space division:  proc/nbgrp/npool/nimage =      12

     Reading data from directory:
     /home/hanghu/scratch/BN-rho-5GPa/reacted/pwscf.save/

     IMPORTANT: XC functional enforced from input :
     Exchange-correlation      = PBE ( 1  4  3  4 0 0)
     Any further DFT definition will be discarded
     Please, verify this is what you really want

               file N.pbe-n-kjpaw_psl.1.0.0.UPF: wavefunction(s)  2S renormalized

     Check: negative/imaginary core charge=   -0.000003    0.000000

     Calculation of q =    0.0000000   0.0000000   0.0000000

     Normal modes for AA

     bravais-lattice index     =            0
     lattice parameter (alat)  =       9.6117  a.u.
     unit-cell volume          =     638.3366 (a.u.)^3
     number of atoms/cell      =           16
     number of atomic types    =            2
     kinetic-energy cut-off    =     100.0000  Ry
     charge density cut-off    =     400.0000  Ry
     convergence threshold     =      1.0E-14
     beta                      =       0.7000
     number of iterations used =            4
     Exchange-correlation      = PBE ( 1  4  3  4 0 0)

     celldm(1)=    9.62381  celldm(2)=    0.00000  celldm(3)=    0.82695
     celldm(4)=    0.00000  celldm(5)=    0.00000  celldm(6)=    0.00000

     crystal axes: (cart. coord. in units of alat)
               a(1) = (  1.0013 -0.0000  0.0000 )
               a(2) = ( -0.5006  0.8671 -0.0000 )
               a(3) = (  0.0000 -0.0000  0.8280 )

     reciprocal axes: (cart. coord. in units 2 pi/alat)
               b(1) = (  0.9987  0.5766 -0.0000 )
               b(2) = (  0.0000  1.1532  0.0000 )
               b(3) = ( -0.0000  0.0000  1.2077 )

     Atoms inside the unit cell:

     Cartesian axes

     site n.  atom      mass           positions (alat units)
        1     B   10.8100   tau(    1) = (   -0.00000    0.28904    0.14997  )
        2     N   14.0070   tau(    2) = (   -0.00000    0.28904    0.66787  )
        3     B   10.8100   tau(    3) = (    0.25031    0.14452    0.56396  )
        4     N   14.0070   tau(    4) = (    0.25031    0.14452    0.25388  )
        5     B   10.8100   tau(    5) = (    0.50063    0.28904    0.14997  )
        6     N   14.0070   tau(    6) = (    0.50063    0.28904    0.66787  )
        7     B   10.8100   tau(    7) = (    0.75094    0.14452    0.56396  )
        8     N   14.0070   tau(    8) = (    0.75094    0.14452    0.25388  )
        9     B   10.8100   tau(    9) = (   -0.25031    0.72260    0.14997  )
       10     N   14.0070   tau(   10) = (   -0.25031    0.72260    0.66787  )
       11     B   10.8100   tau(   11) = (   -0.00000    0.57808    0.56396  )
       12     N   14.0070   tau(   12) = (   -0.00000    0.57808    0.25388  )
       13     B   10.8100   tau(   13) = (    0.25031    0.72260    0.14997  )
       14     N   14.0070   tau(   14) = (    0.25031    0.72260    0.66787  )
       15     B   10.8100   tau(   15) = (    0.50063    0.57808    0.56396  )
       16     N   14.0070   tau(   16) = (    0.50063    0.57808    0.25388  )

     Computing dynamical matrix for
                    q = (   0.0000000   0.0000000   0.0000000 )

      3 Sym.Ops. (with q -> -q+G )

     G cutoff =  936.0562  (   7184 G-vectors)     FFT grid: ( 64, 64, 54)
     number of k points=    34
                       cart. coord. in units 2pi/alat
        k(    1) = (   0.0000000   0.0000000   0.0000000), wk =   0.0185185
        k(    2) = (  -0.0000000   0.0000000   0.4025822), wk =   0.0370370
        k(    3) = (   0.0000000   0.1922082   0.0000000), wk =   0.0740741
        k(    4) = (   0.0000000   0.1922082   0.4025822), wk =   0.0740741
        k(    5) = (   0.0000000   0.3844164   0.0000000), wk =   0.0740741
        k(    6) = (   0.0000000   0.3844164   0.4025822), wk =   0.0740741
        k(    7) = (  -0.0000000  -0.5766246  -0.0000000), wk =   0.0370370
        k(    8) = (  -0.0000000  -0.5766246   0.4025822), wk =   0.0740741
        k(    9) = (   0.1664572   0.2883123   0.0000000), wk =   0.0370370
        k(   10) = (   0.1664572   0.2883123   0.4025822), wk =   0.0740741
        k(   11) = (   0.1664572   0.4805205   0.0000000), wk =   0.0740741
        k(   12) = (   0.1664572   0.4805205   0.4025822), wk =   0.0740741
        k(   13) = (   0.3329144   0.5766247   0.0000000), wk =   0.0370370
        k(   14) = (   0.3329144   0.5766247   0.4025822), wk =   0.0740741
        k(   15) = (  -0.1664572   0.0961041   0.0000000), wk =   0.0370370
        k(   16) = (   0.0000000   0.1922082  -0.4025822), wk =   0.0740741
        k(   17) = (  -0.1664572   0.0961041   0.4025822), wk =   0.0370370
        k(   18) = (   0.1664572  -0.0961041   0.4025822), wk =   0.0370370
        k(   19) = (  -0.3329144   0.1922082   0.0000000), wk =   0.0370370
        k(   20) = (   0.0000000   0.3844164  -0.4025822), wk =   0.0740741
        k(   21) = (  -0.3329144   0.1922082   0.4025822), wk =   0.0370370
        k(   22) = (   0.3329144  -0.1922082   0.4025822), wk =   0.0370370
        k(   23) = (   0.4993715  -0.2883123  -0.0000000), wk =   0.0185185
        k(   24) = (   0.4993715  -0.2883123   0.4025822), wk =   0.0370370
        k(   25) = (  -0.1664572   0.2883123   0.0000000), wk =   0.0740741
        k(   26) = (  -0.1664572   0.2883123  -0.4025822), wk =   0.0740741
        k(   27) = (   0.1664572  -0.2883123  -0.4025822), wk =   0.0740741
        k(   28) = (  -0.1664572   0.4805205   0.0000000), wk =   0.0740741
        k(   29) = (  -0.3329143   0.3844164   0.0000000), wk =   0.0740741
        k(   30) = (  -0.1664572   0.4805205  -0.4025822), wk =   0.0740741
        k(   31) = (   0.1664572  -0.4805205  -0.4025822), wk =   0.0740741
        k(   32) = (  -0.3329143   0.3844164   0.4025822), wk =   0.0740741
        k(   33) = (   0.3329143  -0.3844164   0.4025822), wk =   0.0740741
        k(   34) = (  -0.3329144  -0.3844164  -0.4025822), wk =   0.0740741

     PseudoPot. # 1 for B  read from file:
     /home/hanghu/Simulaiton/QE/pseudo/B.pbe-n-kjpaw_psl.1.0.0.UPF
     MD5 check sum: 8c825a5969375aca5c2c6ad5945b3059
     Pseudo is Projector augmented-wave + core cor, Zval =  3.0
     Generated using "atomic" code by A. Dal Corso v.6.3
     Shape of augmentation charge: PSQ
     Using radial grid of 1059 points,  4 beta functions with:
                l(1) =   0
                l(2) =   0
                l(3) =   1
                l(4) =   1
     Q(r) pseudized with 0 coefficients

     PseudoPot. # 2 for N  read from file:
     /home/hanghu/Simulaiton/QE/pseudo/N.pbe-n-kjpaw_psl.1.0.0.UPF
     MD5 check sum: 14c48229446f9f2d411169a3abcbc3fa
     Pseudo is Projector augmented-wave + core cor, Zval =  5.0
     Generated using "atomic" code by A. Dal Corso v.6.3
     Shape of augmentation charge: PSQ
     Using radial grid of 1085 points,  4 beta functions with:
                l(1) =   0
                l(2) =   0
                l(3) =   1
                l(4) =   1
     Q(r) pseudized with 0 coefficients

     Mode symmetry, C_s (m)     point group:

     Atomic displacements:
     There are  48 irreducible representations

     Representation     1      1 modes -A'  To be done

[...]

     Representation    28      1 modes -A'  To be done

     Representation    29      1 modes -A''  To be done

[...]

     Representation    48      1 modes -A''  To be done

     Alpha used in Ewald sum =   2.8000

     Representation #  1 mode #   1

     Self-consistent Calculation

      thresh= 1.000E-02 alpha_mix =  0.700 |ddv_scf|^2 =  3.033E-07

[...]

     End of self-consistent calculation

     Convergence has been achieved

[...]

     Representation # 48 mode #  48

     Self-consistent Calculation

[...]

      thresh= 3.161E-08 alpha_mix =  0.700 |ddv_scf|^2 =  5.089E-15

     End of self-consistent calculation

     Convergence has been achieved

     Number of q in the star =    1
     List of q in the star:
          1   0.000000000   0.000000000   0.000000000

     Diagonalizing the dynamical matrix

     q = (    0.000000000   0.000000000   0.000000000 )

     freq (    1) =       0.841697 [THz] =      28.075993 [cm-1]
     freq (    2) =       0.842854 [THz] =      28.114594 [cm-1]
     freq (    3) =       1.503061 [THz] =      50.136702 [cm-1]
     freq (    4) =      14.188518 [THz] =     473.278031 [cm-1]
     freq (    5) =      14.188576 [THz] =     473.279965 [cm-1]
     freq (    6) =      14.366929 [THz] =     479.229153 [cm-1]
     freq (    7) =      14.367045 [THz] =     479.233029 [cm-1]
     freq (    8) =      14.367077 [THz] =     479.234117 [cm-1]
     freq (    9) =      18.080822 [THz] =     603.111299 [cm-1]
     freq (   10) =      18.080938 [THz] =     603.115176 [cm-1]
     freq (   11) =      18.081677 [THz] =     603.139813 [cm-1]
     freq (   12) =      20.571619 [THz] =     686.195353 [cm-1]
     freq (   13) =      20.571769 [THz] =     686.200363 [cm-1]
     freq (   14) =      20.572072 [THz] =     686.210455 [cm-1]
     freq (   15) =      25.017495 [THz] =     834.493817 [cm-1]
     freq (   16) =      25.018427 [THz] =     834.524891 [cm-1]
     freq (   17) =      25.024206 [THz] =     834.717671 [cm-1]
     freq (   18) =      26.073947 [THz] =     869.733259 [cm-1]
     freq (   19) =      26.080411 [THz] =     869.948859 [cm-1]
     freq (   20) =      26.081400 [THz] =     869.981867 [cm-1]
     freq (   21) =      26.323386 [THz] =     878.053644 [cm-1]
     freq (   22) =      26.325804 [THz] =     878.134297 [cm-1]
     freq (   23) =      26.326179 [THz] =     878.146813 [cm-1]
     freq (   24) =      26.906714 [THz] =     897.511387 [cm-1]
     freq (   25) =      26.906837 [THz] =     897.515471 [cm-1]
     freq (   26) =      26.907065 [THz] =     897.523080 [cm-1]
     freq (   27) =      28.719821 [THz] =     957.990124 [cm-1]
     freq (   28) =      28.721679 [THz] =     958.052098 [cm-1]
     freq (   29) =      28.723770 [THz] =     958.121850 [cm-1]
     freq (   30) =      28.744042 [THz] =     958.798023 [cm-1]
     freq (   31) =      28.744150 [THz] =     958.801624 [cm-1]
     freq (   32) =      29.064071 [THz] =     969.473063 [cm-1]
     freq (   33) =      29.896448 [THz] =     997.238154 [cm-1]
     freq (   34) =      29.896503 [THz] =     997.240008 [cm-1]
     freq (   35) =      29.896557 [THz] =     997.241788 [cm-1]
     freq (   36) =      30.556781 [THz] =    1019.264490 [cm-1]
     freq (   37) =      30.560569 [THz] =    1019.390840 [cm-1]
     freq (   38) =      30.562368 [THz] =    1019.450879 [cm-1]
     freq (   39) =      30.791865 [THz] =    1027.106047 [cm-1]
     freq (   40) =      31.688609 [THz] =    1057.018226 [cm-1]
     freq (   41) =      31.688650 [THz] =    1057.019598 [cm-1]
     freq (   42) =      32.701888 [THz] =    1090.817555 [cm-1]
     freq (   43) =      32.703298 [THz] =    1090.864593 [cm-1]
     freq (   44) =      32.704896 [THz] =    1090.917904 [cm-1]
     freq (   45) =      33.603342 [THz] =    1120.886831 [cm-1]
     freq (   46) =      33.603855 [THz] =    1120.903958 [cm-1]
     freq (   47) =      33.606116 [THz] =    1120.979377 [cm-1]
     freq (   48) =      33.623085 [THz] =    1121.545388 [cm-1]

     Mode symmetry, C_s (m)     point group:

     freq (  1 -  1) =         28.1  [cm-1]   --> A'              I+R
     freq (  2 -  2) =         28.1  [cm-1]   --> A''             I+R
     freq (  3 -  3) =         50.1  [cm-1]   --> A'              I+R
     freq (  4 -  4) =        473.3  [cm-1]   --> A'              I+R
     freq (  5 -  5) =        473.3  [cm-1]   --> A''             I+R
     freq (  6 -  6) =        479.2  [cm-1]   --> A'              I+R
     freq (  7 -  7) =        479.2  [cm-1]   --> A''             I+R
     freq (  8 -  8) =        479.2  [cm-1]   --> A''             I+R
     freq (  9 -  9) =        603.1  [cm-1]   --> A'              I+R
     freq ( 10 - 10) =        603.1  [cm-1]   --> A'              I+R
     freq ( 11 - 11) =        603.1  [cm-1]   --> A''             I+R
     freq ( 12 - 12) =        686.2  [cm-1]   --> A'              I+R
     freq ( 13 - 13) =        686.2  [cm-1]   --> A''             I+R
     freq ( 14 - 14) =        686.2  [cm-1]   --> A''             I+R
     freq ( 15 - 15) =        834.5  [cm-1]   --> A'              I+R
     freq ( 16 - 16) =        834.5  [cm-1]   --> A'              I+R
     freq ( 17 - 17) =        834.7  [cm-1]   --> A''             I+R
     freq ( 18 - 18) =        869.7  [cm-1]   --> A'              I+R
     freq ( 19 - 19) =        869.9  [cm-1]   --> A'              I+R
     freq ( 20 - 20) =        870.0  [cm-1]   --> A''             I+R
     freq ( 21 - 21) =        878.1  [cm-1]   --> A'              I+R
     freq ( 22 - 22) =        878.1  [cm-1]   --> A'              I+R
     freq ( 23 - 23) =        878.1  [cm-1]   --> A''             I+R
     freq ( 24 - 24) =        897.5  [cm-1]   --> A'              I+R
     freq ( 25 - 25) =        897.5  [cm-1]   --> A''             I+R
     freq ( 26 - 26) =        897.5  [cm-1]   --> A''             I+R
     freq ( 27 - 27) =        958.0  [cm-1]   --> A''             I+R
     freq ( 28 - 28) =        958.1  [cm-1]   --> A'              I+R
     freq ( 29 - 29) =        958.1  [cm-1]   --> A'              I+R
     freq ( 30 - 30) =        958.8  [cm-1]   --> A'              I+R
     freq ( 31 - 31) =        958.8  [cm-1]   --> A''             I+R
     freq ( 32 - 32) =        969.5  [cm-1]   --> A'              I+R
     freq ( 33 - 33) =        997.2  [cm-1]   --> A'              I+R
     freq ( 34 - 34) =        997.2  [cm-1]   --> A''             I+R
     freq ( 35 - 35) =        997.2  [cm-1]   --> A''             I+R
     freq ( 36 - 36) =       1019.3  [cm-1]   --> A'              I+R
     freq ( 37 - 37) =       1019.4  [cm-1]   --> A'              I+R
     freq ( 38 - 38) =       1019.5  [cm-1]   --> A''             I+R
     freq ( 39 - 39) =       1027.1  [cm-1]   --> A'              I+R
     freq ( 40 - 40) =       1057.0  [cm-1]   --> A'              I+R
     freq ( 41 - 41) =       1057.0  [cm-1]   --> A''             I+R
     freq ( 42 - 42) =       1090.8  [cm-1]   --> A'              I+R
     freq ( 43 - 43) =       1090.9  [cm-1]   --> A''             I+R
     freq ( 44 - 44) =       1090.9  [cm-1]   --> A'              I+R
     freq ( 45 - 45) =       1120.9  [cm-1]   --> A'              I+R
     freq ( 46 - 46) =       1120.9  [cm-1]   --> A'              I+R
     freq ( 47 - 47) =       1121.0  [cm-1]   --> A''             I+R
     freq ( 48 - 48) =       1121.5  [cm-1]   --> A'              I+R

      15h
     INITIALIZATION:

     DYNAMICAL MATRIX:

      General routines

      15h

   This run was terminated on:   3:57:26   2Dec2020

   JOB DONE.